242
Lattice="14.89750973 0.00366048 0.0101785 -7.40883243 12.86812982 -0.03406401 0.03275582 -0.02604548 16.34211805" Properties=species:S:1:pos:R:3:dft_hirshfeld_q:R:1:dft_hirshfeld_dipole:R:3:dft_hirshfeld_quadruple:R:9 pbc="T T T"
Si       2.36045837       0.02313972       3.63878391       0.52529924      -0.00290158      -0.00069507       0.00206975       0.39959581      -0.00037060      -0.00156284      -0.00037060       0.38159772       0.00068870      -0.00156284       0.00068870       0.38501831
Si      -1.16149315       2.00574984       1.81106571       0.52418996       0.00027666      -0.00143209      -0.00143728       0.38475197      -0.00590915      -0.00181822      -0.00590915       0.39163657      -0.00087653      -0.00181822      -0.00087653       0.38659126
Si       1.31918753       2.28507405      -0.00579848       0.52516727       0.00035030       0.00163625       0.00118890       0.38735829       0.00264176       0.00058836       0.00264176       0.39116311       0.00003759       0.00058836       0.00003759       0.38510446
O        1.45429099       1.18821584       4.30237498      -0.26240733      -0.00690339       0.00009547      -0.00414767       0.03912007       0.00455892       0.00376003       0.00455892       0.03282104      -0.00878535       0.00376003      -0.00878535       0.03640731
O        3.28439097       0.64090649       2.45931836      -0.26273927       0.00406786      -0.00722693      -0.00478491       0.03707421      -0.00450460       0.00636626      -0.00450460       0.03398161       0.00654062       0.00636626       0.00654062       0.03555055
O        2.77367438       2.53696641       0.66149076      -0.26218139       0.00372786       0.00658247      -0.00417918       0.03131272       0.00084504      -0.00879030       0.00084504       0.03949572       0.00190807      -0.00879030       0.00190807       0.03607025
O        0.29152729       1.77392803       1.13894412      -0.26254577       0.00359841      -0.00690097       0.00420962       0.03113317      -0.00091003       0.00924714      -0.00091003       0.04029751       0.00142342       0.00924714       0.00142342       0.03605158
O       -1.06051797       3.12009616       2.98131625      -0.26271904      -0.00807949      -0.00048084       0.00483839       0.03929214      -0.00375845      -0.00289288      -0.00375845       0.03249732      -0.00952224      -0.00289288      -0.00952224       0.03609726
O        0.78616578       3.68841740       4.80541264      -0.26222842       0.00334416       0.00687060       0.00466828       0.03701589       0.00399495      -0.00646948       0.00399495       0.03390651       0.00636048      -0.00646948       0.00636048       0.03553746
Si       2.37728921       0.03796788       9.09593603       0.52368288       0.00558032      -0.00660042      -0.00246464       0.39083417      -0.00353130      -0.00243542      -0.00353130       0.38400748       0.00650736      -0.00243542       0.00650736       0.39001263
Si      -1.16629684       2.00391738       7.25002771       0.52517932      -0.00215824       0.00024229       0.00058162       0.38513352      -0.00703467      -0.00273289      -0.00703467       0.39307817      -0.00024493      -0.00273289      -0.00024493       0.38448832
Si       1.32561926       2.31000192       5.46691391       0.52573606       0.00407925      -0.00350118      -0.00267629       0.38981442      -0.00118471      -0.00178653      -0.00118471       0.39123203      -0.00428784      -0.00178653      -0.00428784       0.38270634
O        1.38698888       1.11632788       9.78291333      -0.26410822      -0.00892764      -0.00123972      -0.00453863       0.03748645       0.00286382       0.00352978       0.00286382       0.03189247      -0.00890928       0.00352978      -0.00890928       0.03559855
O        3.32592781       0.77594460       8.01166509      -0.26480388       0.00390799      -0.00588804      -0.00357296       0.03564671      -0.00418583       0.00669875      -0.00418583       0.03313607       0.00755196       0.00669875       0.00755196       0.03581965
O        2.75262958       2.61064975       6.17037261      -0.26334803       0.00363131       0.00601975      -0.00394748       0.03048288       0.00094284      -0.00892428       0.00094284       0.03908458       0.00152731      -0.00892428       0.00152731       0.03558902
O        0.29279272       1.76796906       6.59323450      -0.26308502       0.00382085      -0.00732499       0.00418131       0.03084478      -0.00102341       0.00903804      -0.00102341       0.03951338       0.00177875       0.00903804       0.00177875       0.03622459
O       -1.07118641       3.11874714       8.42580215      -0.26211648      -0.00811078      -0.00064358       0.00444502       0.03852835      -0.00351841      -0.00249062      -0.00351841       0.03266113      -0.00895764      -0.00249062      -0.00895764       0.03627696
O        0.82814935       3.65003209      10.22764233      -0.26370678       0.00227712       0.00561514       0.00470241       0.03555248       0.00402194      -0.00567022       0.00402194       0.03287508       0.00597857      -0.00567022       0.00597857       0.03482032
Si       2.37838963      -0.02080687      14.54020002       0.52464534       0.00207286      -0.00078136       0.00026194       0.39840563       0.00091357      -0.00108401       0.00091357       0.38148036       0.00250952      -0.00108401       0.00250952       0.38571438
Si      -1.15257526       2.01776457      12.72819136       0.52462713      -0.00503848      -0.00110241      -0.00132979       0.38690228      -0.00829590      -0.00508067      -0.00829590       0.39182420      -0.00098199      -0.00508067      -0.00098199       0.38406001
Si       1.33057019       2.26938371      10.91641139       0.52157548      -0.00247837       0.00172573       0.00326553       0.38303428       0.00047715       0.00336185       0.00047715       0.38380175      -0.00041274       0.00336185      -0.00041274       0.37831386
O        1.43824684       1.13126157      15.17581405      -0.26283404      -0.00808515      -0.00003077      -0.00465685       0.03865248       0.00386941       0.00299883       0.00386941       0.03264603      -0.00884516       0.00299883      -0.00884516       0.03590174
O        3.30077084       0.60125362      13.36037647      -0.26205671       0.00375081      -0.00713088      -0.00458871       0.03730244      -0.00434744       0.00669054      -0.00434744       0.03434786       0.00665400       0.00669054       0.00665400       0.03627871
O        2.80052449       2.50550435      11.55947834      -0.26328761       0.00327401       0.00499571      -0.00344816       0.03051776       0.00063684      -0.00824208       0.00063684       0.03758323       0.00175998      -0.00824208       0.00175998       0.03486667
O        0.31409738       1.79511024      12.08386017      -0.26226535       0.00379269      -0.00706328       0.00483164       0.03101436      -0.00076447       0.00932638      -0.00076447       0.04060384       0.00127629       0.00932638       0.00127629       0.03582945
O       -1.07542738       3.15640305      13.87968816      -0.26319661      -0.00823915       0.00021736       0.00478289       0.03739272      -0.00308831      -0.00198780      -0.00308831       0.03209957      -0.00858970      -0.00198780      -0.00858970       0.03594063
O        0.83833102       3.64521552      15.67487925      -0.26253640       0.00370763       0.00660601       0.00429773       0.03715468       0.00435123      -0.00605308       0.00435123       0.03383727       0.00655055      -0.00605308       0.00655055       0.03590723
Si      -0.13980691       4.28739676       3.61431510       0.52433262       0.00498741      -0.00029173      -0.00209449       0.39090656      -0.00122276      -0.00010548      -0.00122276       0.38273929       0.00375903      -0.00010548       0.00375903       0.38747938
Si      -3.64866207       6.31822910       1.76886544       0.52529963      -0.00126735      -0.00024777      -0.00113827       0.38677211      -0.00312508      -0.00282754      -0.00312508       0.39215073      -0.00005234      -0.00282754      -0.00005234       0.38191892
Si      -1.15286605       6.57481372      -0.02619802       0.52540677       0.00042054      -0.00141925       0.00129843       0.38769964       0.00617352      -0.00001342       0.00617352       0.39531641      -0.00204437      -0.00001342      -0.00204437       0.38607635
O       -1.13161069       5.41798324       4.21506373      -0.26255590      -0.00878413      -0.00004062      -0.00531756       0.03772948       0.00294806       0.00185710       0.00294806       0.03275625      -0.00872531       0.00185710      -0.00872531       0.03585776
O        0.80888155       4.92268632       2.46094435      -0.26237528       0.00378248      -0.00656966      -0.00425078       0.03692526      -0.00405332       0.00612306      -0.00405332       0.03414339       0.00663198       0.00612306       0.00663198       0.03593442
O        0.29377629       6.81663711       0.65776435      -0.26287931       0.00346840       0.00670610      -0.00402064       0.03108548       0.00089940      -0.00939002       0.00089940       0.03946895       0.00159864      -0.00939002       0.00159864       0.03649847
O       -2.19736707       6.05269474       1.09992526      -0.26258395       0.00343008      -0.00694841       0.00389493       0.03089436      -0.00096845       0.00857601      -0.00096845       0.03969277       0.00183690       0.00857601       0.00183690       0.03585292
O       -3.55055419       7.46072252       2.91462742      -0.26299166      -0.00778054       0.00024031       0.00411945       0.03829580      -0.00350212      -0.00331898      -0.00350212       0.03212742      -0.00894464      -0.00331898      -0.00894464       0.03670277
O       -1.69273043       7.94019912       4.75688614      -0.26214792       0.00397471       0.00707443       0.00470111       0.03794180       0.00450367      -0.00601727       0.00450367       0.03387362       0.00669810      -0.00601727       0.00669810       0.03632497
Si      -0.12975206       4.26729728       9.06840657       0.52342337       0.00075805      -0.00285084      -0.00148445       0.39082252       0.00020332      -0.00087477       0.00020332       0.38436108      -0.00069107      -0.00087477      -0.00069107       0.38555638
Si      -3.64271516       6.28914748       7.25936217       0.52505395      -0.00019674       0.00224654      -0.00079556       0.38699069      -0.00335727      -0.00320979      -0.00335727       0.39098660      -0.00168637      -0.00320979      -0.00168637       0.38628350
Si      -1.19653947       6.53503158       5.38685117       0.52447689      -0.00504612       0.00256769       0.00198439       0.38777726       0.00907749       0.00622966       0.00907749       0.39173970       0.00021276       0.00622966       0.00021276       0.38813044
O       -1.08669467       5.39820201       9.71775846      -0.26342362      -0.00896730       0.00043061      -0.00433099       0.03735876       0.00316798       0.00247465       0.00316798       0.03221134      -0.00871788       0.00247465      -0.00871788       0.03585029
O        0.80081219       4.91475329       7.90600363      -0.26338704       0.00236953      -0.00622559      -0.00490130       0.03613626      -0.00349970       0.00665483      -0.00349970       0.03350295       0.00708383       0.00665483       0.00708383       0.03555544
O        0.28027233       6.73711539       6.01268904      -0.26113459       0.00402814       0.00694441      -0.00548177       0.03164786       0.00049411      -0.00980784       0.00049411       0.04181118       0.00126849      -0.00980784       0.00126849       0.03636174
O       -2.20661008       6.04426450       6.55411679      -0.26222629       0.00352386      -0.00671785       0.00423493       0.03159429      -0.00093671       0.00961641      -0.00093671       0.04044197       0.00177520       0.00961641       0.00177520       0.03624637
O       -3.51595743       7.40552690       8.42784399      -0.26220559      -0.00766135      -0.00010574       0.00465114       0.03862385      -0.00378970      -0.00307622      -0.00378970       0.03271053      -0.00888869      -0.00307622      -0.00888869       0.03626676
O       -1.61966198       7.93269337      10.21887375      -0.26235600       0.00424804       0.00668648       0.00447102       0.03674624       0.00420659      -0.00568776       0.00420659       0.03381215       0.00615876      -0.00568776       0.00615876       0.03587673
Si      -0.08385891       4.27806037      14.49840993       0.52510360       0.00432259       0.00214697       0.00097593       0.39140588       0.00117062       0.00105974       0.00117062       0.38844959       0.00109517       0.00105974       0.00109517       0.38294588
Si      -3.60484215       6.29278909      12.70574853       0.52614078      -0.00218241      -0.00025278      -0.00004800       0.38671212      -0.00545316      -0.00303786      -0.00545316       0.39145508      -0.00067982      -0.00303786      -0.00067982       0.38401538
Si      -1.12733745       6.53523859      10.87538944       0.52460113      -0.00193527       0.00292171       0.00308590       0.38224028       0.00601708       0.00259274       0.00601708       0.39111040       0.00107647       0.00259274       0.00107647       0.38506489
O       -1.00125679       5.45094286      15.13015142      -0.26272771      -0.00758441       0.00037429      -0.00481802       0.03944870       0.00428193       0.00230957       0.00428193       0.03231229      -0.00922798       0.00230957      -0.00922798       0.03606000
O        0.86716011       4.85430044      13.31636822      -0.26315661       0.00310914      -0.00654905      -0.00379514       0.03637809      -0.00429616       0.00656451      -0.00429616       0.03373052       0.00660660       0.00656451       0.00660660       0.03469007
O        0.34950156       6.74224382      11.50285976      -0.26365062       0.00316840       0.00700169      -0.00369780       0.03013781       0.00131955      -0.00871473       0.00131955       0.03846376       0.00176434      -0.00871473       0.00176434       0.03598009
O       -2.14489039       6.06084720      12.04543498      -0.26253374       0.00374307      -0.00649172       0.00442830       0.03096174      -0.00070755       0.00889414      -0.00070755       0.04042835       0.00167610       0.00889414       0.00167610       0.03543540
O       -3.52384819       7.42533413      13.86578015      -0.26271263      -0.00768818      -0.00003317       0.00432539       0.03805194      -0.00354732      -0.00238527      -0.00354732       0.03243978      -0.00844296      -0.00238527      -0.00844296       0.03568672
O       -1.62780856       7.94414235      15.67042090      -0.26288291       0.00400571       0.00683629       0.00452355       0.03706476       0.00414318      -0.00624633       0.00414318       0.03338776       0.00643452      -0.00624633       0.00643452       0.03601141
Si      -2.60004225       8.58778247       3.57835103       0.52419128       0.00148134      -0.00178101       0.00026451       0.39604353      -0.00025761      -0.00191997      -0.00025761       0.38295665       0.00191024      -0.00191997       0.00191024       0.38659556
Si      -6.09173312      10.60796463       1.81617429       0.52625684      -0.00254845       0.00104948       0.00052438       0.38750861      -0.00488938      -0.00338228      -0.00488938       0.39216984       0.00005558      -0.00338228       0.00005558       0.38280339
Si      -3.61517075      10.86642058      -0.01305078       0.52524613      -0.00093767      -0.00191709       0.00054219       0.38714454       0.00373732       0.00145024       0.00373732       0.39206511      -0.00153984       0.00145024      -0.00153984       0.38176471
O       -3.54134046       9.73904859       4.21588937      -0.26217156      -0.00842453       0.00012374      -0.00495650       0.03872610       0.00372883       0.00244547       0.00372883       0.03295606      -0.00884104       0.00244547      -0.00884104       0.03592979
O       -1.63422384       9.21352537       2.43774215      -0.26275461       0.00423707      -0.00685670      -0.00448400       0.03655306      -0.00417684       0.00644928      -0.00417684       0.03402935       0.00656027       0.00644928       0.00656027       0.03580829
O       -2.15599270      11.11203495       0.64328868      -0.26278153       0.00373121       0.00686286      -0.00425050       0.03079421       0.00118306      -0.00880993       0.00118306       0.03954494       0.00191683      -0.00880993       0.00191683       0.03605955
O       -4.63639968      10.37137585       1.14616072      -0.26262574       0.00373374      -0.00664435       0.00419173       0.03083358      -0.00090117       0.00882345      -0.00090117       0.04016900       0.00192755       0.00882345       0.00192755       0.03563052
O       -6.01161778      11.75538140       2.96401592      -0.26264156      -0.00750666       0.00017899       0.00405454       0.03748482      -0.00343628      -0.00245749      -0.00343628       0.03227979      -0.00787632      -0.00245749      -0.00787632       0.03587057
O       -4.10023371      12.25593044       4.75682978      -0.26312449       0.00411177       0.00656477       0.00438700       0.03687346       0.00398349      -0.00604849       0.00398349       0.03319515       0.00657889      -0.00604849       0.00657889       0.03661265
Si      -2.57165317       8.55710579       9.06156818       0.52553345       0.00279208       0.00002266      -0.00079885       0.39640337       0.00131046       0.00049385       0.00131046       0.38312143       0.00292770       0.00049385       0.00292770       0.38662472
Si      -6.06825515      10.62960136       7.21921677       0.52529123      -0.00399575       0.00365786      -0.00224236       0.39106884       0.00006393      -0.00478857       0.00006393       0.39057788      -0.00009355      -0.00478857      -0.00009355       0.38690451
Si      -3.60073429      10.85351234       5.39082736       0.52461075       0.00113174       0.00169779       0.00227191       0.38643216       0.00528467       0.00127581       0.00528467       0.39624047       0.00279673       0.00127581       0.00279673       0.38784425
O       -3.52074810       9.69557461       9.71152759      -0.26308994      -0.00803647      -0.00005480      -0.00434970       0.03802011       0.00330228       0.00263096       0.00330228       0.03232466      -0.00879133       0.00263096      -0.00879133       0.03593138
O       -1.65069291       9.19505996       7.88781960      -0.26232595       0.00357869      -0.00655474      -0.00430217       0.03716559      -0.00395262       0.00649088      -0.00395262       0.03399483       0.00687070       0.00649088       0.00687070       0.03625169
O       -2.13683640      11.06769543       6.04709788      -0.26173661       0.00389580       0.00661602      -0.00466020       0.03129605       0.00054097      -0.00916002       0.00054097       0.04111554       0.00221976      -0.00916002       0.00221976       0.03635104
O       -4.62438549      10.35861792       6.54313071      -0.26314741       0.00365766      -0.00724280       0.00441761       0.03120441      -0.00081269       0.00965696      -0.00081269       0.04057830       0.00209654       0.00965696       0.00209654       0.03599899
O       -5.95615630      11.79888816       8.33330135      -0.26293944      -0.00734637       0.00049078       0.00340563       0.03962873      -0.00324257      -0.00384120      -0.00324257       0.03189089      -0.00972091      -0.00384120      -0.00972091       0.03662303
O       -4.10028160      12.22144902      10.19996604      -0.26208370       0.00387984       0.00637908       0.00397333       0.03721148       0.00456589      -0.00581863       0.00456589       0.03374680       0.00726763      -0.00581863       0.00726763       0.03648085
Si      -2.57098343       8.56780867      14.50659226       0.52474872       0.00077111       0.00014951      -0.00094481       0.39648288      -0.00121773       0.00024393      -0.00121773       0.38403849       0.00047998       0.00024393       0.00047998       0.38241235
Si      -6.07116088      10.59587739      12.69021417       0.52486888       0.00002141      -0.00073487      -0.00018503       0.38593624      -0.00507490      -0.00107384      -0.00507490       0.39109651      -0.00012757      -0.00107384      -0.00012757       0.38516501
Si      -3.59406933      10.83459010      10.86335012       0.52534331      -0.00185071       0.00112189      -0.00022546       0.38729507       0.00604056       0.00312167       0.00604056       0.39077620      -0.00079978       0.00312167      -0.00079978       0.38548956
O       -3.50707843       9.71462602      15.16263210      -0.26281492      -0.00767843       0.00012687      -0.00438417       0.03835776       0.00377112       0.00264206       0.00377112       0.03218575      -0.00850418       0.00264206      -0.00850418       0.03603058
O       -1.63701177       9.18864746      13.33410356      -0.26300236       0.00370523      -0.00663508      -0.00451059       0.03712958      -0.00468960       0.00597391      -0.00468960       0.03379120       0.00646385       0.00597391       0.00646385       0.03557445
O       -2.12921045      11.06964804      11.51234895      -0.26248736       0.00377354       0.00681036      -0.00434502       0.03112695       0.00077061      -0.00878257       0.00077061       0.03963949       0.00186320      -0.00878257       0.00186320       0.03588662
O       -4.61551976      10.34942524      12.02654349      -0.26257863       0.00381895      -0.00659038       0.00434047       0.03088841      -0.00068895       0.00899252      -0.00068895       0.04007559       0.00175486       0.00899252       0.00175486       0.03602440
O       -5.97630959      11.69300004      13.88042748      -0.26231528      -0.00798831      -0.00030176       0.00501488       0.03853844      -0.00384228      -0.00274459      -0.00384228       0.03290326      -0.00859732      -0.00274459      -0.00859732       0.03598045
O       -4.08764948      12.23291684      15.67383390      -0.26226875       0.00418264       0.00690982       0.00460978       0.03709791       0.00425072      -0.00626058       0.00425072       0.03397106       0.00624589      -0.00626058       0.00624589       0.03588337
Si       7.28926709       0.00619173       3.68792441       0.52668767      -0.00226710       0.00480607      -0.00219374       0.39585672       0.00065098       0.00347589       0.00065098       0.38952445      -0.00183845       0.00347589      -0.00183845       0.37858164
Si       3.80088510       2.03026898       1.81088850       0.52472914      -0.00129865       0.00366939      -0.00127063       0.38663303      -0.00357925      -0.00340036      -0.00357925       0.39062518      -0.00249280      -0.00340036      -0.00249280       0.38606762
Si       6.29333476       2.25106498       0.01046200       0.52467476       0.00061516      -0.00295134      -0.00082420       0.38783951       0.00306862       0.00238870       0.00306862       0.39267039      -0.00288422       0.00238870      -0.00288422       0.38745197
O        6.31786557       1.09962849       4.39441855      -0.26287312      -0.00711603      -0.00067219      -0.00298485       0.03676792       0.00271683       0.00180424       0.00271683       0.03114370      -0.00767925       0.00180424      -0.00767925       0.03673411
O        8.22095594       0.67545543       2.54069751      -0.26323858       0.00385501      -0.00573305      -0.00370930       0.03755446      -0.00520585       0.00559415      -0.00520585       0.03326787       0.00757252       0.00559415       0.00757252       0.03660716
O        7.74269100       2.51143150       0.67818294      -0.26268180       0.00388468       0.00712959      -0.00439580       0.03084156       0.00079280      -0.00916254       0.00079280       0.04074072       0.00199949      -0.00916254       0.00199949       0.03605779
O        5.25673193       1.76450080       1.15708550      -0.26272185       0.00381823      -0.00692792       0.00428564       0.03101936      -0.00092378       0.00940175      -0.00092378       0.03976325       0.00188059       0.00940175       0.00188059       0.03651564
O        3.90349955       3.15537436       2.97497050      -0.26287709      -0.00747100      -0.00013213       0.00441126       0.03818014      -0.00355402      -0.00279817      -0.00355402       0.03229037      -0.00881838      -0.00279817      -0.00881838       0.03638590
O        5.81169625       3.66374854       4.76867087      -0.26341744       0.00474787       0.00668817       0.00400923       0.03682405       0.00395009      -0.00590895       0.00395009       0.03381726       0.00771651      -0.00590895       0.00771651       0.03599100
Si       7.35357655      -0.06014580       9.06788768       0.52674363       0.00297098       0.00103541       0.00453717       0.39162388       0.00167515       0.00247359       0.00167515       0.38552014       0.00449880       0.00247359       0.00449880       0.39574935
Si       3.77775729       2.18715005       7.35675517       0.52682984       0.00323035       0.00869441       0.00304310       0.39483712       0.00369562       0.00031541       0.00369562       0.38386011      -0.00911905       0.00031541      -0.00911905       0.38471018
Si       6.27302604       2.29478159       5.49842805       0.52724928      -0.00443458      -0.00732188       0.00063535       0.38991090       0.01126382       0.00453976       0.01126382       0.40028668      -0.00395342       0.00453976      -0.00395342       0.38274355
O        6.44952301       1.07416318       9.78143409      -0.26245624      -0.00695172       0.00007032      -0.00338790       0.03936402       0.00320711       0.00370635       0.00320711       0.03300338      -0.00969596       0.00370635      -0.00969596       0.03558602
O        8.27784615       0.60787779       7.91368078      -0.26251958       0.00372844      -0.00633860      -0.00437877       0.03742872      -0.00423137       0.00618672      -0.00423137       0.03346074       0.00672932       0.00618672       0.00672932       0.03571912
O        7.74630496       2.51837678       6.13107084      -0.26318629       0.00369018       0.00676382      -0.00423907       0.03041950       0.00098284      -0.00887243       0.00098284       0.03992800       0.00196890      -0.00887243       0.00196890       0.03628098
O        5.24347866       1.95057703       6.70365532      -0.26323443       0.00337133      -0.00500068       0.00438874       0.02963559      -0.00125326       0.00892071      -0.00125326       0.04085946       0.00305164       0.00892071       0.00305164       0.03616728
O        3.78949941       3.34473733       8.50923282      -0.26767393      -0.00435963      -0.00247459       0.00076208       0.03102296      -0.00289720      -0.00262524      -0.00289720       0.02798558      -0.00605515      -0.00262524      -0.00605515       0.02990922
O        5.77085579       3.60093309      10.26258560      -0.26449220       0.00725395       0.00187328       0.00165425       0.03336385       0.00793046      -0.00626032       0.00793046       0.02868158       0.00834657      -0.00626032       0.00834657       0.03527940
Si       7.35131280      -0.04846581      14.52131880       0.52467616       0.00247489       0.00127761       0.00150485       0.39297881       0.00121918      -0.00016712       0.00121918       0.38490457       0.00360815      -0.00016712       0.00360815       0.38787664
Si       3.82637757       1.98619331      12.70830693       0.52350903      -0.00303044      -0.00113142       0.00090822       0.38470282      -0.00189279      -0.00200293      -0.00189279       0.38517472       0.00057528      -0.00200293       0.00057528       0.38670562
Si       6.31284893       2.22424796      10.91318652       0.52375736       0.00136093      -0.00308192      -0.00695047       0.38492787       0.00646265       0.00501824       0.00646265       0.38468559      -0.00468675       0.00501824      -0.00468675       0.39377076
O        6.42263364       1.08729727      15.20332703      -0.26253484      -0.00749822      -0.00011700      -0.00409728       0.03907560       0.00360563       0.00326122       0.00360563       0.03258978      -0.00926464       0.00326122      -0.00926464       0.03632421
O        8.27791135       0.60018877      13.35951675      -0.26234989       0.00391261      -0.00675990      -0.00453014       0.03720070      -0.00412456       0.00645433      -0.00412456       0.03378126       0.00707778       0.00645433       0.00707778       0.03691724
O        7.75669287       2.51178546      11.58753404      -0.26352122       0.00357385       0.00722623      -0.00413123       0.03077273       0.00091674      -0.00901537       0.00091674       0.03931335       0.00166285      -0.00901537       0.00166285       0.03582516
O        5.27751713       1.70891766      12.05077647      -0.26347988       0.00440158      -0.00757256       0.00414602       0.03091645      -0.00070708       0.00917393      -0.00070708       0.03852515       0.00201411       0.00917393       0.00201411       0.03581291
O        3.93882578       3.11611017      13.86547409      -0.26301855      -0.00744373      -0.00031447       0.00480906       0.03842133      -0.00346126      -0.00306397      -0.00346126       0.03242226      -0.00890160      -0.00306397      -0.00890160       0.03557010
O        5.81868288       3.60955607      15.68875441      -0.26245980       0.00428454       0.00694044       0.00458802       0.03752039       0.00444409      -0.00629205       0.00444409       0.03416567       0.00733659      -0.00629205       0.00733659       0.03613423
Si       4.85672294       4.29328910       3.62196307       0.52456314       0.00085407      -0.00066160      -0.00036530       0.39212425       0.00005695      -0.00092899       0.00005695       0.38835002       0.00159668      -0.00092899       0.00159668       0.38730214
Si       1.32432610       6.31113224       1.80289087       0.52578568      -0.00030363      -0.00028887       0.00024814       0.38723288      -0.00399802      -0.00245537      -0.00399802       0.39107993      -0.00170907      -0.00245537      -0.00170907       0.38684692
Si       3.81525920       6.54367110      -0.01220168       0.52422608      -0.00096449      -0.00355788       0.00335783       0.38898812       0.00078109       0.00175938       0.00078109       0.39200850      -0.00089845       0.00175938      -0.00089845       0.38351731
O        3.90998564       5.42782247       4.28235869      -0.26275333      -0.00750842       0.00008628      -0.00442654       0.03863862       0.00385696       0.00298809       0.00385696       0.03245425      -0.00892928       0.00298809      -0.00892928       0.03617667
O        5.78823328       4.93097109       2.45904500      -0.26237545       0.00423872      -0.00688428      -0.00444478       0.03752101      -0.00426270       0.00608109      -0.00426270       0.03414208       0.00715253       0.00608109       0.00715253       0.03593670
O        5.26674485       6.80485543       0.65290513      -0.26266056       0.00370621       0.00684588      -0.00423020       0.03092772       0.00099569      -0.00937000       0.00099569       0.04003247       0.00214991      -0.00937000       0.00214991       0.03647709
O        2.77735586       6.05726599       1.13527085      -0.26243558       0.00369503      -0.00655411       0.00403443       0.03104694      -0.00085385       0.00903776      -0.00085385       0.03995023       0.00157992       0.00903776       0.00157992       0.03610072
O        1.42326963       7.44231381       2.96063899      -0.26270311      -0.00772908       0.00022225       0.00428959       0.03841611      -0.00363082      -0.00291221      -0.00363082       0.03269098      -0.00859497      -0.00291221      -0.00859497       0.03558139
O        3.29366203       7.93773165       4.78882310      -0.26252575       0.00391214       0.00699007       0.00451805       0.03768763       0.00462121      -0.00653567       0.00462121       0.03392076       0.00685131      -0.00653567       0.00685131       0.03588124
Si       4.77171394       4.42257294       9.26467406       0.41892390       0.00863199      -0.04138024      -0.03644978       0.39153184       0.00760370       0.01036737       0.00760370       0.33223505      -0.04048042       0.01036737      -0.04048042       0.32837460
Si       1.28518810       6.28897813       7.19630525       0.52039608      -0.00526454      -0.00538835      -0.00221302       0.38998704      -0.00371123      -0.00145989      -0.00371123       0.38043555      -0.00330018      -0.00145989      -0.00330018       0.38971835
Si       3.80466780       6.55073505       5.44631358       0.52420049       0.00015142      -0.00300380      -0.00120225       0.38856853       0.00197607       0.00092753       0.00197607       0.39126883      -0.00287658       0.00092753      -0.00287658       0.38265984
O        5.69618186       5.06230470       8.07444211      -0.26369413       0.00601142      -0.00720335      -0.00541481       0.03475822      -0.00573860       0.00666649      -0.00573860       0.03089709       0.00764985       0.00666649       0.00764985       0.03277488
O        5.24723850       6.81355157       6.12576351      -0.26275130       0.00415616       0.00713634      -0.00407330       0.03034369       0.00084840      -0.00902916       0.00084840       0.04062852       0.00197851      -0.00902916       0.00197851       0.03582839
O        2.76673745       6.04312612       6.58765414      -0.26358391       0.00345231      -0.00567248       0.00311285       0.03011205      -0.00046823       0.00878726      -0.00046823       0.03759284       0.00242871       0.00878726       0.00242871       0.03678057
O        1.33238866       7.47662410       8.29622313      -0.26642812      -0.01050623       0.00293496       0.00374433       0.03414248      -0.00105875      -0.00385404      -0.00105875       0.03149952      -0.00786674      -0.00385404      -0.00786674       0.03407995
O        3.42826136       7.51320980       9.88523556      -0.26573840       0.00252855       0.00732958       0.00226271       0.03306841       0.00627553      -0.00636691       0.00627553       0.03016847       0.01032910      -0.00636691       0.01032910       0.03514384
Si       4.88931939       4.24778336      14.52651389       0.52358002       0.00174965      -0.00066412      -0.00162549       0.39178283      -0.00274292       0.00085730      -0.00274292       0.38863283       0.00198775       0.00085730       0.00198775       0.38605958
Si       1.42371543       6.19273495      12.58830915       0.52685930       0.01212339       0.01064696       0.00333207       0.39376818       0.00949080       0.00473077       0.00949080       0.39029970      -0.01080578       0.00473077      -0.01080578       0.37513480
Si       3.93208056       6.18982500      10.68903103       0.42085973      -0.03299605       0.03620355       0.03295957       0.36496741       0.02682203       0.02864115       0.02682203       0.34425297      -0.02537626       0.02864115      -0.02537626       0.35544036
O        3.93671002       5.38210215      15.17633742      -0.26314815      -0.00771940       0.00010591      -0.00436618       0.03799969       0.00380397       0.00298912       0.00380397       0.03184925      -0.00894593       0.00298912      -0.00894593       0.03714104
O        5.84461853       4.88974077      13.38614711      -0.26340928       0.00498360      -0.00647947      -0.00369116       0.03663809      -0.00397522       0.00572814      -0.00397522       0.03408991       0.00741318       0.00572814       0.00741318       0.03484875
O        5.27789670       6.65768759      11.49643922      -0.26474947       0.00324335       0.00914881      -0.00088672       0.02867693      -0.00045577      -0.01050342      -0.00045577       0.03419198      -0.00000708      -0.01050342      -0.00000708       0.03122938
O        2.79972198       5.80573824      11.81168980      -0.26567690       0.00082675      -0.00253166       0.00546427       0.02625389      -0.00107066       0.00900876      -0.00107066       0.03454917       0.00100246       0.00900876       0.00100246       0.03226730
O        1.62052165       7.33712844      13.72387563      -0.26282542      -0.00514940       0.00033968       0.00297565       0.03996180      -0.00568120      -0.00531170      -0.00568120       0.03190424      -0.00861765      -0.00531170      -0.00861765       0.03715542
O        3.35526448       7.90189588      15.65618713      -0.26305338       0.00444484       0.00729791       0.00457695       0.03723069       0.00496251      -0.00640379       0.00496251       0.03334764       0.00651562      -0.00640379       0.00651562       0.03585771
Si       2.37578284       8.57576005       3.61523971       0.52489210       0.00079884      -0.00037332      -0.00146574       0.39709471      -0.00187894       0.00023623      -0.00187894       0.38379547       0.00168213       0.00023623       0.00168213       0.38566448
Si      -1.12298935      10.60565423       1.78673071       0.52598962       0.00302270       0.00619992       0.00160489       0.38889677       0.00017888      -0.00072553       0.00017888       0.39130964      -0.00487142      -0.00072553      -0.00487142       0.38257122
Si       1.35149830      10.78426388      -0.06267409       0.52687065      -0.00028187      -0.00584868      -0.00222105       0.38985218       0.00401721       0.00266089       0.00401721       0.39323328      -0.00310800       0.00266089      -0.00310800       0.38427162
O        1.44241086       9.72971283       4.26009440      -0.26272712      -0.00776559       0.00016685      -0.00458652       0.03858984       0.00403766       0.00283870       0.00403766       0.03252542      -0.00870065       0.00283870      -0.00870065       0.03623608
O        3.33146199       9.19815643       2.46269750      -0.26254519       0.00435558      -0.00682651      -0.00424229       0.03693650      -0.00418422       0.00609880      -0.00418422       0.03411586       0.00679679       0.00609880       0.00679679       0.03586890
O        2.80588252      11.03076680       0.60728150      -0.26287935       0.00363747       0.00612365      -0.00420091       0.03039917       0.00098381      -0.00883771       0.00098381       0.04027804       0.00235566      -0.00883771       0.00235566       0.03584960
O        0.31994327      10.33324614       1.10514209      -0.26285538       0.00349620      -0.00655378       0.00409550       0.03047901      -0.00120502       0.00897291      -0.00120502       0.04001005       0.00210995       0.00897291       0.00210995       0.03613213
O       -1.02863040      11.72869862       2.95567069      -0.26244252      -0.00699386      -0.00005842       0.00389091       0.03858120      -0.00404426      -0.00321709      -0.00404426       0.03247012      -0.00838484      -0.00321709      -0.00838484       0.03568075
O        0.83428845      12.23228379       4.79765615      -0.26299902       0.00426658       0.00677708       0.00432892       0.03676941       0.00480583      -0.00597403       0.00480583       0.03344019       0.00646001      -0.00597403       0.00646001       0.03560406
Si       2.43317186       8.43363736       9.00129089       0.52271307       0.00508142       0.01222446       0.01372532       0.38430304       0.00854161       0.00945703       0.00854161       0.37622618       0.00467982       0.00945703       0.00467982       0.40498301
Si      -1.13178983      10.57609674       7.22057628       0.52519257      -0.00202831      -0.00227420       0.00187464       0.39274072      -0.00755414       0.00193772      -0.00755414       0.39132648      -0.00113778       0.00193772      -0.00113778       0.39054448
Si       1.35682741      10.84136893       5.43789080       0.52447326       0.00211615      -0.00221600      -0.00006532       0.38670825       0.00427835      -0.00002326       0.00427835       0.39151200      -0.00208234      -0.00002326      -0.00208234       0.38328734
O        1.62136421       9.51222141       9.88526830      -0.26287247      -0.00526789      -0.00100116      -0.00113476       0.04169121       0.00237501       0.00607308       0.00237501       0.03219180      -0.01153172       0.00607308      -0.01153172       0.03638606
O        3.32499879       9.18665792       7.87749050      -0.26216073       0.00377497      -0.00596926      -0.00447746       0.03801978      -0.00460697       0.00613464      -0.00460697       0.03283419       0.00809829       0.00613464       0.00809829       0.03663702
O        2.81051434      11.09652174       6.10425176      -0.26256865       0.00370639       0.00664182      -0.00413172       0.03079178       0.00100970      -0.00870373       0.00100970       0.03951773       0.00204725      -0.00870373       0.00204725       0.03643137
O        0.33584275      10.32025370       6.58660229      -0.26297130       0.00404090      -0.00698311       0.00437686       0.03082910      -0.00046246       0.00894785      -0.00046246       0.03893350       0.00235931       0.00894785       0.00235931       0.03707795
O       -1.05356291      11.72295323       8.36356561      -0.26400071      -0.00840618       0.00090310       0.00426251       0.03758214      -0.00327791      -0.00278890      -0.00327791       0.03284147      -0.00891805      -0.00278890      -0.00891805       0.03549765
O        0.90680386      12.07813296      10.11407769      -0.26291559       0.00353964       0.00525809       0.00257943       0.03663354       0.00467105      -0.00658358       0.00467105       0.03558806       0.00910179      -0.00658358       0.00910179       0.03620890
Si       2.45074044       8.51505097      14.45974611       0.52710089      -0.00790894      -0.00188511      -0.00397772       0.41053625       0.00127910       0.00141036       0.00127910       0.38389464      -0.00270036       0.00141036      -0.00270036       0.37877139
Si      -1.11233351      10.57142311      12.67355871       0.52475113      -0.00025550       0.00054798      -0.00249658       0.38512873      -0.00409592      -0.00380974      -0.00409592       0.39349414      -0.00158200      -0.00380974      -0.00158200       0.38505163
Si       1.42145471      10.75892630      10.89561837       0.52690330      -0.00421380      -0.00145577      -0.00738824       0.39085083       0.00058561       0.00670642       0.00058561       0.38569434       0.00016209       0.00670642       0.00016209       0.39898793
O        1.45269468       9.61228261      15.12470078      -0.26278422      -0.00710840      -0.00051743      -0.00383915       0.03622823       0.00363057       0.00223049       0.00363057       0.03268354      -0.00665954       0.00223049      -0.00665954       0.03536137
O        3.40136059       9.20647740      13.34677957      -0.26387111       0.00454518      -0.00579200      -0.00377738       0.03653837      -0.00458288       0.00655954      -0.00458288       0.03233463       0.00687270       0.00655954       0.00687270       0.03804099
O        2.83565017      11.12338230      11.59348834      -0.26413362       0.00343385       0.00805831      -0.00366234       0.03124511       0.00052526      -0.00919492       0.00052526       0.03858239       0.00123506      -0.00919492       0.00123506       0.03528043
O        0.34945103      10.31687852      12.02874041      -0.26281838       0.00340417      -0.00626777       0.00411630       0.03049007      -0.00047621       0.00951845      -0.00047621       0.04025939       0.00139470       0.00951845       0.00139470       0.03596272
O       -1.02821522      11.70303691      13.83163695      -0.26307255      -0.00814480       0.00020664       0.00444696       0.03806611      -0.00344245      -0.00288288      -0.00344245       0.03232685      -0.00871600      -0.00288288      -0.00871600       0.03597929
O        0.89527583      12.15158388      15.61522159      -0.26348976       0.00406698       0.00640323       0.00388537       0.03645844       0.00422401      -0.00616261       0.00422401       0.03366675       0.00727259      -0.00616261       0.00727259       0.03618284
Si      12.27489292      -0.00754596       3.62370289       0.52542338       0.00011660      -0.00315654       0.00027336       0.39510976      -0.00020985      -0.00213163      -0.00020985       0.38572014      -0.00010218      -0.00213163      -0.00010218       0.38194386
Si       8.75736204       2.03541132       1.84846393       0.52535409       0.00026329      -0.00330028      -0.00094394       0.38791479      -0.00741035      -0.00131277      -0.00741035       0.39858135       0.00132800      -0.00131277       0.00132800       0.38358209
Si      11.23850496       2.27954727       0.03482781       0.52481554      -0.00376667       0.00035198       0.00253610       0.38650187       0.00437829       0.00323745       0.00437829       0.39246817       0.00093478       0.00323745       0.00093478       0.38450247
O       11.34039609       1.14593408       4.27098468      -0.26277625      -0.00760442       0.00015315      -0.00431064       0.03835257       0.00379475       0.00260455       0.00379475       0.03238459      -0.00850527       0.00260455      -0.00850527       0.03564876
O       13.23049848       0.61425133       2.46856426      -0.26258909       0.00424733      -0.00689063      -0.00434717       0.03690866      -0.00414980       0.00594388      -0.00414980       0.03373458       0.00631915       0.00594388       0.00631915       0.03566952
O       12.69691894       2.52666327       0.69026144      -0.26288375       0.00373106       0.00690290      -0.00415471       0.03101030       0.00085028      -0.00918623       0.00085028       0.03988863       0.00178725      -0.00918623       0.00178725       0.03597759
O       10.21388277       1.77399928       1.18819223      -0.26231236       0.00351771      -0.00674016       0.00420863       0.03099521      -0.00034425       0.00839555      -0.00034425       0.04016259       0.00168056       0.00839555       0.00168056       0.03575077
O        8.84733885       3.18349855       2.98641178      -0.26316344      -0.00816555       0.00049296       0.00434223       0.03849391      -0.00368127      -0.00264585      -0.00368127       0.03196627      -0.00903948      -0.00264585      -0.00903948       0.03628832
O       10.75448473       3.66396430       4.78232265      -0.26244719       0.00407918       0.00654283       0.00419511       0.03673328       0.00425644      -0.00614145       0.00425644       0.03389793       0.00657746      -0.00614145       0.00657746       0.03614399
Si      12.29433673      -0.00747478       9.08188545       0.52538096       0.00028224      -0.00319813      -0.00169040       0.39640899      -0.00244356      -0.00117638      -0.00244356       0.38330031      -0.00014551      -0.00117638      -0.00014551       0.38406569
Si       8.78022502       2.00684201       7.27072624       0.52555733      -0.00183082       0.00109452       0.00147378       0.38852491      -0.00519365      -0.00302801      -0.00519365       0.39133925      -0.00157029      -0.00302801      -0.00157029       0.38369207
Si      11.25583111       2.27029161       5.43796495       0.52549500      -0.00099259      -0.00116789      -0.00091724       0.38866065       0.00323453       0.00178777       0.00323453       0.39062722      -0.00124630       0.00178777      -0.00124630       0.38204348
O       11.35061514       1.14389759       9.71706554      -0.26257924      -0.00801588       0.00015812      -0.00482032       0.03834433       0.00397367       0.00275054       0.00397367       0.03257755      -0.00849742       0.00275054      -0.00849742       0.03605811
O       13.21595218       0.61099219       7.89829756      -0.26205200       0.00407766      -0.00705367      -0.00480433       0.03741134      -0.00415292       0.00603616      -0.00415292       0.03413487       0.00632085       0.00603616       0.00632085       0.03571096
O       12.70927484       2.51624726       6.10861240      -0.26245641       0.00359083       0.00677080      -0.00439617       0.03074513       0.00100835      -0.00869996       0.00100835       0.03990042       0.00198177      -0.00869996       0.00198177       0.03603318
O       10.22851419       1.76916183       6.58802171      -0.26298036       0.00345226      -0.00670383       0.00401849       0.03059922      -0.00109722       0.00902929      -0.00109722       0.04001990       0.00160936       0.00902929       0.00160936       0.03588780
O        8.88089998       3.12293769       8.44451772      -0.26257060      -0.00768866      -0.00030744       0.00445851       0.03846483      -0.00373970      -0.00265680      -0.00373970       0.03261184      -0.00851338      -0.00265680      -0.00851338       0.03594395
O       10.75833068       3.65002735      10.25965217      -0.26245295       0.00394493       0.00698370       0.00460480       0.03715003       0.00418908      -0.00606722       0.00418908       0.03353443       0.00633618      -0.00606722       0.00633618       0.03594501
Si      12.32358576      -0.00613022      14.57312966       0.52449402       0.00431235       0.00215042       0.00082582       0.39394721       0.00107777       0.00055956       0.00107777       0.38386413       0.00352316       0.00055956       0.00352316       0.38687698
Si       8.79562403       1.99284165      12.71793824       0.52503343      -0.00069370      -0.00034512      -0.00018539       0.38617482      -0.00364944      -0.00275902      -0.00364944       0.39430368       0.00094865      -0.00275902       0.00094865       0.39070369
Si      11.26875337       2.25221641      10.89809040       0.52468162       0.00137781      -0.00075198       0.00102192       0.38763654       0.00391116       0.00100399       0.00391116       0.39255054      -0.00090107       0.00100399      -0.00090107       0.38318367
O       11.36425205       1.12599275      15.21663881      -0.26278106      -0.00813360      -0.00004871      -0.00465514       0.03856723       0.00348592       0.00280531       0.00348592       0.03239949      -0.00913270       0.00280531      -0.00913270       0.03644961
O       13.25322352       0.63076177      13.40599534      -0.26210300       0.00406877      -0.00684802      -0.00437987       0.03731886      -0.00433495       0.00598681      -0.00433495       0.03404051       0.00680701       0.00598681       0.00680701       0.03631434
O       12.72170551       2.49118826      11.57120782      -0.26210991       0.00354804       0.00641077      -0.00424676       0.03096813       0.00092886      -0.00904586       0.00092886       0.04040319       0.00177856      -0.00904586       0.00177856       0.03626795
O       10.24097291       1.73431038      12.03875463      -0.26290823       0.00358446      -0.00715282       0.00418674       0.03123541      -0.00085866       0.00940407      -0.00085866       0.03973072       0.00182790       0.00940407       0.00182790       0.03628331
O        8.91420167       3.10989100      13.88495966      -0.26221870      -0.00777985      -0.00014198       0.00459087       0.03910920      -0.00364615      -0.00315294      -0.00364615       0.03286598      -0.00926012      -0.00315294      -0.00926012       0.03628704
O       10.76570942       3.64279540      15.71546173      -0.26216235       0.00375923       0.00692134       0.00453424       0.03710771       0.00435070      -0.00624114       0.00435070       0.03395573       0.00627471      -0.00624114       0.00627471       0.03600930
Si       9.80815210       4.31087144       3.63456842       0.52529644       0.00519020       0.00272068       0.00046115       0.39319231       0.00071304       0.00086659       0.00071304       0.38842682       0.00316396       0.00086659       0.00316396       0.38414806
Si       6.30117707       6.31746524       1.80112118       0.52514962      -0.00021525       0.00169652       0.00164322       0.38750110      -0.00633662      -0.00270575      -0.00633662       0.39356285      -0.00244082      -0.00270575      -0.00244082       0.38693226
Si       8.76497836       6.56192936      -0.03359488       0.52472868      -0.00119217       0.00254570       0.00090227       0.38792196       0.00558456       0.00142205       0.00558456       0.39549180       0.00096794       0.00142205       0.00096794       0.38247656
O        8.86404563       5.44048049       4.30435808      -0.26264469      -0.00780308      -0.00009398      -0.00454449       0.03898233       0.00375839       0.00298098       0.00375839       0.03234090      -0.00926201       0.00298098      -0.00926201       0.03647871
O       10.73252957       4.94813724       2.46326637      -0.26217005       0.00373941      -0.00657492      -0.00413994       0.03720443      -0.00473943       0.00586378      -0.00473943       0.03406937       0.00674878       0.00586378       0.00674878       0.03595347
O       10.22234641       6.81740246       0.62424208      -0.26255916       0.00360870       0.00673728      -0.00425152       0.03070377       0.00060317      -0.00855228       0.00060317       0.04005832       0.00163035      -0.00855228       0.00163035       0.03566772
O        7.75192782       6.06749449       1.13118791      -0.26264606       0.00386530      -0.00719420       0.00436891       0.03087063      -0.00076640       0.00911606      -0.00076640       0.04046940       0.00171593       0.00911606       0.00171593       0.03621172
O        6.40389307       7.45117740       2.95502303      -0.26240973      -0.00761008       0.00011215       0.00413146       0.03879576      -0.00347365      -0.00306643      -0.00347365       0.03264275      -0.00912124      -0.00306643      -0.00912124       0.03632433
O        8.23585387       7.93867753       4.82618969      -0.26253250       0.00353899       0.00664187       0.00466787       0.03746488       0.00457588      -0.00641117       0.00457588       0.03344747       0.00656179      -0.00641117       0.00656179       0.03637898
Si       9.82583744       4.27047056       9.08582615       0.52456559      -0.00000349      -0.00180893      -0.00014789       0.39690164      -0.00060391      -0.00113313      -0.00060391       0.38104122       0.00134321      -0.00113313       0.00134321       0.38517414
Si       6.27077727       6.35678677       7.29737565       0.52174300       0.00510503      -0.00396790      -0.00585892       0.38204843      -0.00724170       0.00581576      -0.00724170       0.40292129       0.00098309       0.00581576       0.00098309       0.37256427
Si       8.74480042       6.54738766       5.48125838       0.52595584      -0.00229941      -0.00170431       0.00323908       0.38810823       0.00238419       0.00262401       0.00238419       0.39601168      -0.00007055       0.00262401      -0.00007055       0.38554550
O        8.88837565       5.42692187       9.72103242      -0.26312124      -0.00771700       0.00005794      -0.00443638       0.03832179       0.00376776       0.00265586       0.00376776       0.03255849      -0.00863177       0.00265586      -0.00863177       0.03563461
O       10.76626533       4.89266710       7.91952133      -0.26268992       0.00417585      -0.00716880      -0.00444628       0.03681940      -0.00397720       0.00618678      -0.00397720       0.03384455       0.00646485       0.00618678       0.00646485       0.03571331
O       10.19141683       6.80616473       6.15946494      -0.26322010       0.00332486       0.00675828      -0.00374451       0.03078613       0.00110445      -0.00946696       0.00110445       0.03961414       0.00164100      -0.00946696       0.00164100       0.03648880
O        7.70503081       6.02438342       6.61525623      -0.26264132       0.00309074      -0.00714835       0.00378027       0.03097835      -0.00004656       0.00767411      -0.00004656       0.03897403       0.00124485       0.00767411       0.00124485       0.03538276
O        6.41934986       7.54497417       8.38240083      -0.26382718      -0.00757302       0.00169665       0.00309367       0.03734813      -0.00476408      -0.00271187      -0.00476408       0.03082099      -0.00934525      -0.00271187      -0.00934525       0.03700040
O        8.30080244       7.94062620      10.23626089      -0.26200434       0.00364375       0.00613852       0.00398943       0.03791517       0.00461069      -0.00593220       0.00461069       0.03386544       0.00685395      -0.00593220       0.00685395       0.03609793
Si       9.84717542       4.26314801      14.52991368       0.52532794       0.00468321      -0.00149537      -0.00278513       0.39584045      -0.00133325       0.00027436      -0.00133325       0.38288221       0.00443328       0.00027436       0.00443328       0.38625708
Si       6.31714746       6.26842617      12.67841727       0.52243245      -0.00190598       0.00684106       0.00559790       0.38503004      -0.01149934      -0.00899936      -0.01149934       0.39161116      -0.00656894      -0.00899936      -0.00656894       0.37916120
Si       8.81002473       6.54868177      10.89000394       0.52507362       0.00001680       0.00157955      -0.00122317       0.38850223       0.00378887       0.00198054       0.00378887       0.39153657      -0.00090748       0.00198054      -0.00090748       0.38321714
O        8.88268130       5.39990324      15.15688544      -0.26301675      -0.00840348      -0.00029177      -0.00465394       0.03840664       0.00370516       0.00260691       0.00370516       0.03217987      -0.00874159       0.00260691      -0.00874159       0.03609553
O       10.79463997       4.90259279      13.37737876      -0.26227219       0.00397814      -0.00645308      -0.00409926       0.03666029      -0.00389892       0.00605860      -0.00389892       0.03400839       0.00636927       0.00605860       0.00636927       0.03590852
O       10.26569118       6.78509014      11.55881339      -0.26263450       0.00351700       0.00645508      -0.00415035       0.03067019       0.00087967      -0.00883718       0.00087967       0.04011795       0.00176852      -0.00883718       0.00176852       0.03596679
O        7.78874127       6.04247712      12.04196703      -0.26349775       0.00388018      -0.00695991       0.00480294       0.03007848      -0.00100657       0.00870686      -0.00100657       0.03998361       0.00171155       0.00870686       0.00171155       0.03566436
O        6.37829218       7.45047376      13.79291185      -0.26219754      -0.00759372       0.00053565       0.00335311       0.03731179      -0.00276144      -0.00219749      -0.00276144       0.03194246      -0.00818296      -0.00219749      -0.00818296       0.03662681
O        8.27073572       7.90909974      15.63299600      -0.26281715       0.00378466       0.00610327       0.00408107       0.03742163       0.00495725      -0.00588540       0.00495725       0.03336686       0.00704397      -0.00588540       0.00704397       0.03656479
Si       7.34478608       8.58093815       3.63192085       0.52526784       0.00431281      -0.00314609      -0.00283967       0.39693969      -0.00237255      -0.00066564      -0.00237255       0.38433185       0.00327256      -0.00066564       0.00327256       0.38465213
Si       3.83052052      10.57995267       1.78164181       0.52575859      -0.00311564       0.00347800       0.00104785       0.38756945      -0.00765469      -0.00369667      -0.00765469       0.39391757      -0.00250611      -0.00369667      -0.00250611       0.38193817
Si       6.32123660      10.84768547      -0.01203225       0.52549534       0.00166857      -0.00245265      -0.00072146       0.38773035       0.00219352       0.00084505       0.00219352       0.39185116      -0.00285350       0.00084505      -0.00285350       0.38167176
O        6.39041051       9.72545327       4.26151457      -0.26331367      -0.00830532      -0.00006206      -0.00469134       0.03824604       0.00390354       0.00259429       0.00390354       0.03211190      -0.00865371       0.00259429      -0.00865371       0.03599443
O        8.31774410       9.22110745       2.50136558      -0.26271120       0.00415818      -0.00645681      -0.00379936       0.03603465      -0.00393454       0.00594453      -0.00393454       0.03389793       0.00649552       0.00594453       0.00649552       0.03619996
O        7.77310968      11.07674657       0.66545261      -0.26273230       0.00344316       0.00633648      -0.00412356       0.03039013       0.00116353      -0.00904037       0.00116353       0.04058835       0.00182413      -0.00904037       0.00182413       0.03604348
O        5.29139787      10.33401063       1.13011896      -0.26303434       0.00368746      -0.00715567       0.00422707       0.03063398      -0.00109013       0.00875383      -0.00109013       0.03982715       0.00175891       0.00875383       0.00175891       0.03587589
O        3.91107926      11.73323890       2.92284693      -0.26269757      -0.00736129       0.00010711       0.00388880       0.03794760      -0.00333187      -0.00233553      -0.00333187       0.03188383      -0.00835629      -0.00233553      -0.00835629       0.03636724
O        5.79173835      12.23034638       4.76403238      -0.26279216       0.00385343       0.00650442       0.00446273       0.03745899       0.00475498      -0.00569383       0.00475498       0.03349910       0.00662393      -0.00569383       0.00662393       0.03565615
Si       7.39442773       8.62452379       9.07764364       0.52456865       0.00722284      -0.00128956       0.00429777       0.39138548      -0.00018153      -0.00317752      -0.00018153       0.39123415       0.00428309      -0.00317752       0.00428309       0.38710060
Si       3.83965205      10.58495882       7.25009171       0.52636449      -0.00303589       0.00166594       0.00281512       0.38774269      -0.00765246      -0.00510988      -0.00765246       0.39097378      -0.00293294      -0.00510988      -0.00293294       0.38809211
Si       6.31400480      10.84867116       5.42766318       0.52498235       0.00176341       0.00064325       0.00247355       0.38685348       0.00531781       0.00204019       0.00531781       0.39486703      -0.00138932       0.00204019      -0.00138932       0.38228132
O        6.45753437       9.76617162       9.73433371      -0.26338813      -0.00785768      -0.00022527      -0.00474118       0.03967934       0.00415592       0.00280275       0.00415592       0.03240244      -0.00980147       0.00280275      -0.00980147       0.03632135
O        8.35999484       9.26113689       7.94400268      -0.26294453       0.00436602      -0.00693459      -0.00373503       0.03629503      -0.00457959       0.00631576      -0.00457959       0.03440014       0.00704863       0.00631576       0.00704863       0.03616397
O        7.77399238      11.09149519       6.08535296      -0.26209684       0.00327897       0.00611371      -0.00393045       0.03081351       0.00071317      -0.00902303       0.00071317       0.04054969       0.00138481      -0.00902303       0.00138481       0.03623030
O        5.29552722      10.34937389       6.58460136      -0.26268694       0.00381798      -0.00714343       0.00437537       0.03109593      -0.00096768       0.00916777      -0.00096768       0.03999038       0.00189296       0.00916777       0.00189296       0.03597518
O        3.94400642      11.69592077       8.42964639      -0.26217803      -0.00741133      -0.00038056       0.00444665       0.03803094      -0.00342327      -0.00203986      -0.00342327       0.03278656      -0.00855624      -0.00203986      -0.00855624       0.03606583
O        5.83794030      12.27244410      10.22272651      -0.26204309       0.00422477       0.00713866       0.00456036       0.03736790       0.00422627      -0.00600215       0.00422627       0.03373682       0.00649162      -0.00600215       0.00649162       0.03640327
Si       7.34442226       8.56274302      14.47153095       0.52648332      -0.00040732      -0.00435688      -0.00026474       0.39731647      -0.00195389      -0.00263139      -0.00195389       0.38490994      -0.00039344      -0.00263139      -0.00039344       0.38163204
Si       3.88522602      10.61350008      12.71737134       0.52433656      -0.00016465      -0.00127104      -0.00526337       0.38545670      -0.00073098      -0.00395224      -0.00073098       0.39806182       0.00654323      -0.00395224       0.00654323       0.39392775
Si       6.36039103      10.89384542      10.89075566       0.52391698      -0.00016260       0.00183978       0.00077224       0.38993557       0.00800000      -0.00103315       0.00800000       0.39664753       0.00084206      -0.00103315       0.00084206       0.38371955
O        6.42772487       9.71629488      15.14417107      -0.26235442      -0.00780810       0.00023601      -0.00450080       0.03844579       0.00390616       0.00291873       0.00390616       0.03273941      -0.00852206       0.00291873      -0.00852206       0.03573256
O        8.29393459       9.20082200      13.31942474      -0.26254224       0.00391474      -0.00670540      -0.00431943       0.03673305      -0.00443602       0.00603816      -0.00443602       0.03362204       0.00600953       0.00603816       0.00600953       0.03575222
O        7.81384157      11.14649982      11.55617704      -0.26233459       0.00396121       0.00739683      -0.00433509       0.03120504       0.00057537      -0.00876924       0.00057537       0.03960286       0.00189546      -0.00876924       0.00189546       0.03651925
O        5.33537947      10.38725713      12.03793539      -0.26244544       0.00366746      -0.00677282       0.00442199       0.03137842      -0.00074758       0.00986255      -0.00074758       0.04104239       0.00251370       0.00986255       0.00251370       0.03650175
O        3.97019208      11.71834958      13.89652355      -0.26217576      -0.00847988      -0.00021167       0.00497597       0.03898055      -0.00360495      -0.00282779      -0.00360495       0.03287079      -0.00907004      -0.00282779      -0.00907004       0.03599470
O        5.85645806      12.22951764      15.69888270      -0.26226978       0.00402569       0.00680764       0.00465911       0.03698665       0.00399046      -0.00615799       0.00399046       0.03381997       0.00611568      -0.00615799       0.00611568       0.03567987
