242
Lattice="14.89750973 0.00366048 0.0101785 -7.40883243 12.86812982 -0.03406401 0.03275582 -0.02604548 16.34211805" Properties=species:S:1:pos:R:3:initial_magmoms:R:1:dft_hirshfeld_spin:R:1:dft_hirshfeld_q:R:1:dft_hirshfeld_dipole:R:3:dft_hirshfeld_quadruple:R:9 pbc="T T T"
Si       2.36045837       0.02313972       3.63878391       0.00000000       0.00050221       0.52924998      -0.00304814      -0.00087729       0.00189122       0.40331597      -0.00056887      -0.00146427      -0.00056887       0.38467983       0.00052968      -0.00146427       0.00052968       0.38823367
Si      -1.16149315       2.00574984       1.81106571       0.00000000       0.00064415       0.52852434       0.00022577      -0.00140967      -0.00146507       0.38833882      -0.00618818      -0.00162896      -0.00618818       0.39553354      -0.00086759      -0.00162896      -0.00086759       0.39028319
Si       1.31918753       2.28507405      -0.00579848       0.00000000       0.00051046       0.52909232       0.00014621       0.00153394       0.00146125       0.39059903       0.00278832       0.00056139       0.00278832       0.39471046       0.00016069       0.00056139       0.00016069       0.38824113
O        1.45429099       1.18821584       4.30237498       0.00000000       0.00328105      -0.25928385      -0.00723698       0.00004464      -0.00451644       0.04016185       0.00473382       0.00383760       0.00473382       0.03375316      -0.00900791       0.00383760      -0.00900791       0.03742860
O        3.28439097       0.64090649       2.45931836       0.00000000       0.00474370      -0.25921485       0.00420005      -0.00740986      -0.00496368       0.03841493      -0.00469579       0.00663381      -0.00469579       0.03490363       0.00663132       0.00663381       0.00663132       0.03655919
O        2.77367438       2.53696641       0.66149076       0.00000000       0.00456824      -0.25888618       0.00378820       0.00680521      -0.00414588       0.03215520       0.00087599      -0.00905160       0.00087599       0.04072130       0.00194061      -0.00905160       0.00194061       0.03709206
O        0.29152729       1.77392803       1.13894412       0.00000000       0.00498773      -0.25884297       0.00374411      -0.00712080       0.00437529       0.03209787      -0.00086285       0.00957232      -0.00086285       0.04159489       0.00155267       0.00957232       0.00155267       0.03727993
O       -1.06051797       3.12009616       2.98131625       0.00000000       0.00609877      -0.25860702      -0.00830288      -0.00038290       0.00492157       0.04069313      -0.00411538      -0.00281498      -0.00411538       0.03372486      -0.00986398      -0.00281498      -0.00986398       0.03727506
O        0.78616578       3.68841740       4.80541264       0.00000000       0.00407215      -0.25921175       0.00330670       0.00703797       0.00449936       0.03811332       0.00421197      -0.00659796       0.00421197       0.03481384       0.00650292      -0.00659796       0.00650292       0.03637392
Si       2.37728921       0.03796788       9.09593603       0.00000000       0.00062709       0.52792813       0.00529940      -0.00707090      -0.00394825       0.39472887      -0.00352401      -0.00340437      -0.00352401       0.38678740       0.00605335      -0.00340437       0.00605335       0.39434354
Si      -1.16629684       2.00391738       7.25002771       0.00000000       0.00043015       0.52902281      -0.00239646       0.00023037       0.00035008       0.38789573      -0.00736734      -0.00291669      -0.00736734       0.39642123      -0.00011003      -0.00291669      -0.00011003       0.38778622
Si       1.32561926       2.31000192       5.46691391       0.00000000       0.00039672       0.52974387       0.00483563      -0.00356976      -0.00285630       0.39376398      -0.00097062      -0.00160867      -0.00097062       0.39413282      -0.00449659      -0.00160867      -0.00449659       0.38539033
O        1.38698888       1.11632788       9.78291333       0.00000000       0.00351773      -0.26082137      -0.00989370      -0.00179809      -0.00442652       0.03855512       0.00303561       0.00350429       0.00303561       0.03281799      -0.00914832       0.00350429      -0.00914832       0.03663770
O        3.32592781       0.77594460       8.01166509       0.00000000       0.00792985      -0.25909315       0.00363862      -0.00726493      -0.00424297       0.03730709      -0.00423586       0.00703063      -0.00423586       0.03498614       0.00818349       0.00703063       0.00818349       0.03765475
O        2.75262958       2.61064975       6.17037261       0.00000000       0.00297744      -0.26028849       0.00316954       0.00581805      -0.00512268       0.03119962       0.00089482      -0.00910789       0.00089482       0.04024518       0.00152726      -0.00910789       0.00152726       0.03670841
O        0.29279272       1.76796906       6.59323450       0.00000000       0.00373698      -0.26027705       0.00353122      -0.00763450       0.00399504       0.03157429      -0.00101300       0.00924838      -0.00101300       0.04048325       0.00183670       0.00924838       0.00183670       0.03711007
O       -1.07118641       3.11874714       8.42580215       0.00000000       0.00322797      -0.25903896      -0.00863766      -0.00064893       0.00444920       0.03958469      -0.00370760      -0.00247129      -0.00370760       0.03360327      -0.00918715      -0.00247129      -0.00918715       0.03722531
O        0.82814935       3.65003209      10.22764233       0.00000000       0.00199883      -0.26305837       0.00062031       0.00489567       0.00486182       0.03563885       0.00401578      -0.00571353       0.00401578       0.03297799       0.00608433      -0.00571353       0.00608433       0.03501721
Si       2.37838963      -0.02080687      14.54020002       0.00000000       0.00048593       0.52877987       0.00220328      -0.00070291       0.00002845       0.40209255       0.00108197      -0.00134819       0.00108197       0.38448816       0.00237204      -0.00134819       0.00237204       0.38914319
Si      -1.15257526       2.01776457      12.72819136       0.00000000       0.00047722       0.52866057      -0.00491970      -0.00135423      -0.00130136       0.39016085      -0.00873423      -0.00516976      -0.00873423       0.39510001      -0.00086800      -0.00516976      -0.00086800       0.38750531
Si       1.33057019       2.26938371      10.91641139       0.00000000       0.00035599       0.52417224      -0.00357920       0.00016957       0.00410366       0.38528896      -0.00008579       0.00443840      -0.00008579       0.38571072      -0.00034308       0.00443840      -0.00034308       0.38066580
O        1.43824684       1.13126157      15.17581405       0.00000000       0.00447376      -0.25950130      -0.00842607      -0.00016305      -0.00454668       0.03976097       0.00407546       0.00298698       0.00407546       0.03360696      -0.00911491       0.00298698      -0.00911491       0.03693058
O        3.30077084       0.60125362      13.36037647       0.00000000       0.00378925      -0.25868692       0.00374208      -0.00768257      -0.00432896       0.03861753      -0.00460343       0.00684586      -0.00460343       0.03540900       0.00676483       0.00684586       0.00676483       0.03723328
O        2.80052449       2.50550435      11.55947834       0.00000000       0.00276772      -0.26286542       0.00210718       0.00346301      -0.00248667       0.03053832       0.00058087      -0.00838872       0.00058087       0.03760123       0.00176499      -0.00838872       0.00176499       0.03502463
O        0.31409738       1.79511024      12.08386017       0.00000000       0.00354622      -0.25906076       0.00357609      -0.00746074       0.00508588       0.03190321      -0.00070760       0.00958018      -0.00070760       0.04173240       0.00138685       0.00958018       0.00138685       0.03689996
O       -1.07542738       3.15640305      13.87968816       0.00000000       0.00439262      -0.25960981      -0.00868202       0.00020071       0.00504601       0.03860073      -0.00333902      -0.00198616      -0.00333902       0.03319983      -0.00886443      -0.00198616      -0.00886443       0.03698973
O        0.83833102       3.64521552      15.67487925       0.00000000       0.00371821      -0.25949240       0.00370006       0.00674425       0.00473879       0.03820563       0.00453530      -0.00616639       0.00453530       0.03470382       0.00670191      -0.00616639       0.00670191       0.03682829
Si      -0.13980691       4.28739676       3.61431510       0.00000000       0.00055275       0.52839985       0.00472836      -0.00063323      -0.00217450       0.39450672      -0.00128450       0.00001891      -0.00128450       0.38601116       0.00368782       0.00001891       0.00368782       0.39072182
Si      -3.64866207       6.31822910       1.76886544       0.00000000       0.00058841       0.52955520      -0.00129532      -0.00026159      -0.00132454       0.39027217      -0.00340281      -0.00260231      -0.00340281       0.39587155      -0.00008735      -0.00260231      -0.00008735       0.38549020
Si      -1.15286605       6.57481372      -0.02619802       0.00000000       0.00051896       0.52935337       0.00023545      -0.00150219       0.00147508       0.39086249       0.00641092      -0.00010856       0.00641092       0.39895046      -0.00203258      -0.00010856      -0.00203258       0.38938934
O       -1.13161069       5.41798324       4.21506373       0.00000000       0.00423564      -0.25916285      -0.00908545      -0.00010018      -0.00552799       0.03888194       0.00322476       0.00184948       0.00322476       0.03379118      -0.00895577       0.00184948      -0.00895577       0.03685319
O        0.80888155       4.92268632       2.46094435       0.00000000       0.00399747      -0.25919678       0.00390988      -0.00675672      -0.00443797       0.03807255      -0.00422638       0.00630140      -0.00422638       0.03503635       0.00676382       0.00630140       0.00676382       0.03687550
O        0.29377629       6.81663711       0.65776435       0.00000000       0.00424299      -0.25973318       0.00349986       0.00690145      -0.00394380       0.03189806       0.00088874      -0.00964572       0.00088874       0.04061000       0.00167687      -0.00964572       0.00167687       0.03750287
O       -2.19736707       6.05269474       1.09992526       0.00000000       0.00506163      -0.25882559       0.00362678      -0.00723149       0.00408285       0.03186532      -0.00095632       0.00887701      -0.00095632       0.04105826       0.00193027       0.00887701       0.00193027       0.03705191
O       -3.55055419       7.46072252       2.91462742       0.00000000       0.00519482      -0.25935038      -0.00792492       0.00031130       0.00422121       0.03950724      -0.00374891      -0.00332736      -0.00374891       0.03320563      -0.00924946      -0.00332736      -0.00924946       0.03781736
O       -1.69273043       7.94019912       4.75688614       0.00000000       0.00443175      -0.25879951       0.00413195       0.00724937       0.00471441       0.03917700       0.00466749      -0.00623089       0.00466749       0.03478502       0.00684293      -0.00623089       0.00684293       0.03732576
Si      -0.12975206       4.26729728       9.06840657       0.00000000       0.00034649       0.52608246      -0.00103592      -0.00352687      -0.00190530       0.39217195      -0.00038248      -0.00119627      -0.00038248       0.38623489      -0.00174303      -0.00119627      -0.00174303       0.38858269
Si      -3.64271516       6.28914748       7.25936217       0.00000000       0.00043830       0.52886629       0.00010151       0.00219681      -0.00124544       0.38967035      -0.00365794      -0.00293942      -0.00365794       0.39439618      -0.00181720      -0.00293942      -0.00181720       0.38971876
Si      -1.19653947       6.53503158       5.38685117       0.00000000       0.00046234       0.52855029      -0.00477403       0.00266918       0.00200524       0.39125381       0.00938175       0.00622381       0.00938175       0.39504342       0.00015313       0.00622381       0.00015313       0.39137492
O       -1.08669467       5.39820201       9.71775846       0.00000000       0.00284164      -0.26044896      -0.00980414       0.00022001      -0.00452870       0.03826706       0.00332244       0.00248489       0.00332244       0.03308973      -0.00892142       0.00248489      -0.00892142       0.03679667
O        0.80081219       4.91475329       7.90600363       0.00000000       0.00218502      -0.26179264       0.00094064      -0.00653338      -0.00579880       0.03649473      -0.00361040       0.00664800      -0.00361040       0.03394552       0.00715052       0.00664800       0.00715052       0.03591214
O        0.28027233       6.73711539       6.01268904       0.00000000       0.00279789      -0.25810717       0.00383322       0.00711355      -0.00597758       0.03248770       0.00044634      -0.01001615       0.00044634       0.04296268       0.00137892      -0.01001615       0.00137892       0.03742540
O       -2.20661008       6.04426450       6.55411679       0.00000000       0.00425045      -0.25893988       0.00355569      -0.00696337       0.00421362       0.03247766      -0.00089286       0.00987787      -0.00089286       0.04165280       0.00188044       0.00987787       0.00188044       0.03725936
O       -3.51595743       7.40552690       8.42784399       0.00000000       0.00378245      -0.25929942      -0.00770535      -0.00005914       0.00468447       0.03962021      -0.00400903      -0.00310077      -0.00400903       0.03356956      -0.00909159      -0.00310077      -0.00909159       0.03714342
O       -1.61966198       7.93269337      10.21887375       0.00000000       0.00340689      -0.25968657       0.00396836       0.00679187       0.00456578       0.03767965       0.00430698      -0.00585870       0.00430698       0.03452180       0.00628120      -0.00585870       0.00628120       0.03673342
Si      -0.08385891       4.27806037      14.49840993       0.00000000       0.00043895       0.52930638       0.00425163       0.00251351       0.00050763       0.39477226       0.00150907       0.00085196       0.00150907       0.39153392       0.00073257       0.00085196       0.00073257       0.38640755
Si      -3.60484215       6.29278909      12.70574853       0.00000000       0.00042278       0.53008503      -0.00195580      -0.00030252      -0.00041634       0.38965586      -0.00578920      -0.00283920      -0.00578920       0.39477732      -0.00087758      -0.00283920      -0.00087758       0.38745658
Si      -1.12733745       6.53523859      10.87538944       0.00000000       0.00033953       0.52839721      -0.00198993       0.00307462       0.00396907       0.38478771       0.00646533       0.00338893       0.00646533       0.39404447       0.00131171       0.00338893       0.00131171       0.38825150
O       -1.00125679       5.45094286      15.13015142       0.00000000       0.00395314      -0.25954128      -0.00795655       0.00026872      -0.00468919       0.04061017       0.00453065       0.00226980       0.00453065       0.03325419      -0.00944555       0.00226980      -0.00944555       0.03699065
O        0.86716011       4.85430044      13.31636822       0.00000000       0.00259972      -0.26055554       0.00238763      -0.00698196      -0.00318413       0.03745556      -0.00438366       0.00669715      -0.00438366       0.03452148       0.00669713       0.00669715       0.00669713       0.03545281
O        0.34950156       6.74224382      11.50285976       0.00000000       0.00222154      -0.26162923       0.00180090       0.00727258      -0.00333764       0.03075531       0.00121869      -0.00885800       0.00121869       0.03918539       0.00180682      -0.00885800       0.00180682       0.03663071
O       -2.14489039       6.06084720      12.04543498       0.00000000       0.00323848      -0.25950031       0.00369284      -0.00674835       0.00460711       0.03182162      -0.00066832       0.00910936      -0.00066832       0.04159403       0.00173417       0.00910936       0.00173417       0.03637039
O       -3.52384819       7.42533413      13.86578015       0.00000000       0.00421200      -0.25951771      -0.00778660      -0.00001364       0.00456140       0.03904392      -0.00372183      -0.00244213      -0.00372183       0.03337620      -0.00870412      -0.00244213      -0.00870412       0.03671027
O       -1.62780856       7.94414235      15.67042090       0.00000000       0.00461967      -0.25945302       0.00410893       0.00701016       0.00477434       0.03831718       0.00432020      -0.00649981       0.00432020       0.03428341       0.00654948      -0.00649981       0.00654948       0.03704236
Si      -2.60004225       8.58778247       3.57835103       0.00000000       0.00056607       0.52831438       0.00141532      -0.00182186       0.00017218       0.39976950      -0.00027660      -0.00196720      -0.00027660       0.38626328       0.00188721      -0.00196720       0.00188721       0.38994831
Si      -6.09173312      10.60796463       1.81617429       0.00000000       0.00057720       0.53039245      -0.00261347       0.00097089       0.00052990       0.39091214      -0.00509147      -0.00335745      -0.00509147       0.39599535       0.00003285      -0.00335745       0.00003285       0.38619016
Si      -3.61517075      10.86642058      -0.01305078       0.00000000       0.00055452       0.52930820      -0.00088748      -0.00183400       0.00070461       0.39044705       0.00391047       0.00139056       0.00391047       0.39567208      -0.00142387       0.00139056      -0.00142387       0.38507662
O       -3.54134046       9.73904859       4.21588937       0.00000000       0.00479691      -0.25862676      -0.00859847       0.00009201      -0.00515677       0.03989113       0.00396919       0.00243365       0.00396919       0.03402042      -0.00913869       0.00243365      -0.00913869       0.03702014
O       -1.63422384       9.21352537       2.43774215       0.00000000       0.00515284      -0.25901218       0.00446088      -0.00712441      -0.00461155       0.03788157      -0.00438777       0.00666856      -0.00438777       0.03506969       0.00672969       0.00666856       0.00672969       0.03692302
O       -2.15599270      11.11203495       0.64328868       0.00000000       0.00534156      -0.25903102       0.00380514       0.00712575      -0.00432315       0.03173185       0.00114365      -0.00909831       0.00114365       0.04093019       0.00204598      -0.00909831       0.00204598       0.03721529
O       -4.63639968      10.37137585       1.14616072       0.00000000       0.00499776      -0.25901853       0.00390139      -0.00680804       0.00437437       0.03175414      -0.00086339       0.00910571      -0.00086339       0.04149984       0.00203785       0.00910571       0.00203785       0.03674409
O       -6.01161778      11.75538140       2.96401592       0.00000000       0.00470531      -0.25913422      -0.00774358       0.00029395       0.00410796       0.03864154      -0.00364271      -0.00247154      -0.00364271       0.03332817      -0.00817259      -0.00247154      -0.00817259       0.03697648
O       -4.10023371      12.25593044       4.75682978       0.00000000       0.00522253      -0.25968924       0.00424751       0.00663345       0.00423606       0.03808552       0.00415219      -0.00630780       0.00415219       0.03410522       0.00674576      -0.00630780       0.00674576       0.03767927
Si      -2.57165317       8.55710579       9.06156818       0.00000000       0.00044038       0.52918586       0.00250415      -0.00012235      -0.00076474       0.39943372       0.00117920       0.00036175       0.00117920       0.38588797       0.00279602       0.00036175       0.00279602       0.38986007
Si      -6.06825515      10.62960136       7.21921677       0.00000000       0.00062354       0.52975125      -0.00399156       0.00345953      -0.00151875       0.39421506      -0.00013781      -0.00487405      -0.00013781       0.39475537      -0.00015044      -0.00487405      -0.00015044       0.39081074
Si      -3.60073429      10.85351234       5.39082736       0.00000000       0.00053430       0.52855140       0.00107939       0.00155559       0.00217470       0.38973222       0.00547439       0.00110415       0.00547439       0.39968708       0.00269795       0.00110415       0.00269795       0.39118658
O       -3.52074810       9.69557461       9.71152759       0.00000000       0.00414519      -0.25994720      -0.00826091      -0.00021014      -0.00445682       0.03908666       0.00347387       0.00268473       0.00347387       0.03321931      -0.00901695       0.00268473      -0.00901695       0.03689176
O       -1.65069291       9.19505996       7.88781960       0.00000000       0.00363216      -0.25939194       0.00346789      -0.00681690      -0.00461203       0.03821323      -0.00411771       0.00664355      -0.00411771       0.03483173       0.00701083       0.00664355       0.00701083       0.03712200
O       -2.13683640      11.06769543       6.04709788       0.00000000       0.00363883      -0.25875515       0.00401464       0.00659305      -0.00500474       0.03206401       0.00051749      -0.00937615       0.00051749       0.04222308       0.00230467      -0.00937615       0.00230467       0.03729991
O       -4.62438549      10.35861792       6.54313071       0.00000000       0.00474195      -0.25964214       0.00385530      -0.00759886       0.00433561       0.03208161      -0.00079564       0.00989224      -0.00079564       0.04192166       0.00220703       0.00989224       0.00220703       0.03706774
O       -5.95615630      11.79888816       8.33330135       0.00000000       0.00599402      -0.25855855      -0.00781089       0.00042262       0.00350783       0.04108816      -0.00333966      -0.00402412      -0.00333966       0.03320521      -0.01014434      -0.00402412      -0.01014434       0.03803838
O       -4.10028160      12.22144902      10.19996604       0.00000000       0.00360640      -0.25944913       0.00378560       0.00602016       0.00423518       0.03816658       0.00471165      -0.00594625       0.00471165       0.03437537       0.00740085      -0.00594625       0.00740085       0.03732184
Si      -2.57098343       8.56780867      14.50659226       0.00000000       0.00052308       0.52868085       0.00075614       0.00028427      -0.00101094       0.39996868      -0.00108132       0.00011990      -0.00108132       0.38712236       0.00034371       0.00011990       0.00034371       0.38573408
Si      -6.07116088      10.59587739      12.69021417       0.00000000       0.00043939       0.52877885       0.00012989      -0.00103356       0.00025919       0.38885673      -0.00557731      -0.00107994      -0.00557731       0.39437360      -0.00050203      -0.00107994      -0.00050203       0.38840413
Si      -3.59406933      10.83459010      10.86335012       0.00000000       0.00047837       0.52910155      -0.00194273       0.00114625      -0.00003696       0.39028551       0.00600101       0.00337985       0.00600101       0.39391016      -0.00080694       0.00337985      -0.00080694       0.38855840
O       -3.50707843       9.71462602      15.16263210       0.00000000       0.00487728      -0.25936455      -0.00788325       0.00009877      -0.00439980       0.03953520       0.00398804       0.00265591       0.00398804       0.03317998      -0.00878085       0.00265591      -0.00878085       0.03706652
O       -1.63701177       9.18864746      13.33410356       0.00000000       0.00518270      -0.25942641       0.00368170      -0.00681847      -0.00445763       0.03842102      -0.00485411       0.00626362      -0.00485411       0.03474686       0.00661200       0.00626362       0.00661200       0.03664561
O       -2.12921045      11.06964804      11.51234895       0.00000000       0.00494780      -0.25931665       0.00367447       0.00672834      -0.00427676       0.03189058       0.00074881      -0.00900909       0.00074881       0.04087167       0.00197605      -0.00900909       0.00197605       0.03680720
O       -4.61551976      10.34942524      12.02654349       0.00000000       0.00374982      -0.25942774       0.00397201      -0.00680266       0.00458393       0.03171155      -0.00064392       0.00922606      -0.00064392       0.04121682       0.00182704       0.00922606       0.00182704       0.03703191
O       -5.97630959      11.69300004      13.88042748       0.00000000       0.00358473      -0.25916527      -0.00822639      -0.00023924       0.00526741       0.03962198      -0.00404652      -0.00275790      -0.00404652       0.03388630      -0.00882028      -0.00275790      -0.00882028       0.03691808
O       -4.08764948      12.23291684      15.67383390       0.00000000       0.00448316      -0.25881742       0.00430376       0.00709435       0.00490267       0.03830053       0.00440010      -0.00647602       0.00440010       0.03489538       0.00640930      -0.00647602       0.00640930       0.03697179
Si       7.28926709       0.00619173       3.68792441       0.00000000       0.00054247       0.53096730      -0.00236160       0.00495184      -0.00228938       0.39977363       0.00042531       0.00354779       0.00042531       0.39296433      -0.00190018       0.00354779      -0.00190018       0.38191304
Si       3.80088510       2.03026898       1.81088850       0.00000000       0.00048453       0.52863598      -0.00139509       0.00357046      -0.00127903       0.38990512      -0.00381022      -0.00332096      -0.00381022       0.39406921      -0.00250365      -0.00332096      -0.00250365       0.38901553
Si       6.29333476       2.25106498       0.01046200       0.00000000       0.00048310       0.52868202       0.00063657      -0.00276509      -0.00062512       0.39105088       0.00300429       0.00254942       0.00300429       0.39644154      -0.00275138       0.00254942      -0.00275138       0.39026389
O        6.31786557       1.09962849       4.39441855       0.00000000       0.00402490      -0.25938359      -0.00736571      -0.00082219      -0.00344719       0.03795269       0.00284945       0.00185357       0.00284945       0.03213145      -0.00793720       0.00185357      -0.00793720       0.03796804
O        8.22095594       0.67545543       2.54069751       0.00000000       0.00493077      -0.25951089       0.00402380      -0.00597245      -0.00390194       0.03888939      -0.00535093       0.00587257      -0.00535093       0.03426344       0.00775941       0.00587257       0.00775941       0.03779711
O        7.74269100       2.51143150       0.67818294       0.00000000       0.00527691      -0.25899058       0.00396074       0.00729833      -0.00440954       0.03174792       0.00070211      -0.00940957       0.00070211       0.04220844       0.00218368      -0.00940957       0.00218368       0.03710851
O        5.25673193       1.76450080       1.15708550       0.00000000       0.00369023      -0.25957534       0.00385935      -0.00722712       0.00448049       0.03181384      -0.00087838       0.00960302      -0.00087838       0.04099061       0.00195131       0.00960302       0.00195131       0.03747674
O        3.90349955       3.15537436       2.97497050       0.00000000       0.00316791      -0.26006861      -0.00775046      -0.00010714       0.00426683       0.03919982      -0.00375441      -0.00279079      -0.00375441       0.03314969      -0.00900748      -0.00279079      -0.00900748       0.03718673
O        5.81169625       3.66374854       4.76867087       0.00000000       0.00262324      -0.26153363       0.00497799       0.00649455       0.00301912       0.03746628       0.00405755      -0.00605753       0.00405755       0.03437736       0.00780553      -0.00605753       0.00780553       0.03656545
Si       7.35357655      -0.06014580       9.06788768       0.00000000       0.00087121       0.53178352       0.00237886       0.00161415       0.00638493       0.39606085       0.00099510       0.00190153       0.00099510       0.38896696       0.00513269       0.00190153       0.00513269       0.40019361
Si       3.77775729       2.18715005       7.35675517       0.00000000       0.00152631       0.53344101       0.00327356       0.01054579       0.00614368       0.39827965       0.00382861       0.00014341       0.00382861       0.39013978      -0.00668186       0.00014341      -0.00668186       0.39067299
Si       6.27302604       2.29478159       5.49842805       0.00000000       0.00056188       0.53083495      -0.00524651      -0.00865712       0.00039299       0.39355015       0.01203311       0.00392499       0.01203311       0.40336956      -0.00436743       0.00392499      -0.00436743       0.38582592
O        6.44952301       1.07416318       9.78143409       0.00000000       0.00983970      -0.25651169      -0.00662774      -0.00117963      -0.00357479       0.04098045       0.00358770       0.00368904       0.00358770       0.03531637      -0.01041667       0.00368904      -0.01041667       0.03727309
O        8.27784615       0.60787779       7.91368078       0.00000000       0.00378584      -0.25904337       0.00443030      -0.00683017      -0.00496909       0.03862484      -0.00441615       0.00628101      -0.00441615       0.03437365       0.00691355       0.00628101       0.00691355       0.03681126
O        7.74630496       2.51837678       6.13107084       0.00000000       0.00290727      -0.26067845       0.00434172       0.00647675      -0.00503655       0.03102040       0.00097931      -0.00900491       0.00097931       0.04088185       0.00205980      -0.00900491       0.00205980       0.03695655
O        5.24347866       1.95057703       6.70365532       0.00000000       0.00516072      -0.25955504       0.00360669      -0.00624635       0.00315835       0.03045649      -0.00123938       0.00906211      -0.00123938       0.04257490       0.00342762       0.00906211       0.00342762       0.03720827
O        3.78949941       3.34473733       8.50923282       0.00000000       0.01444926      -0.25857300      -0.00625435      -0.00382380      -0.00097193       0.03380614      -0.00360631      -0.00273694      -0.00360631       0.03190303      -0.00610525      -0.00273694      -0.00610525       0.03228819
O        5.77085579       3.60093309      10.26258560       0.00000000       0.02943184      -0.24963065       0.00903273      -0.00029594       0.00275427       0.03934442       0.00710157      -0.00817215       0.00710157       0.03201674       0.00936480      -0.00817215       0.00936480       0.03968444
Si       7.35131280      -0.04846581      14.52131880       0.00000000       0.00052514       0.52855196       0.00266684       0.00111441       0.00188034       0.39681694       0.00150776      -0.00021778       0.00150776       0.38784428       0.00354760      -0.00021778       0.00354760       0.39115371
Si       3.82637757       1.98619331      12.70830693       0.00000000       0.00046661       0.52653787      -0.00277609      -0.00324609       0.00200223       0.38893758      -0.00288628      -0.00188250      -0.00288628       0.38653688       0.00156133      -0.00188250       0.00156133       0.38918905
Si       6.31284893       2.22424796      10.91318652       0.00000000       0.00236367       0.53146950       0.00057079       0.00080511      -0.01080159       0.38860057       0.00577608       0.00526286       0.00577608       0.39343573      -0.00776031       0.00526286      -0.00776031       0.40014529
O        6.42263364       1.08729727      15.20332703       0.00000000       0.00400648      -0.25955612      -0.00772094      -0.00034187      -0.00383828       0.04016284       0.00375744       0.00335657       0.00375744       0.03341734      -0.00945241       0.00335657      -0.00945241       0.03721486
O        8.27791135       0.60018877      13.35951675       0.00000000       0.00396037      -0.25922613       0.00429324      -0.00703477      -0.00420641       0.03834889      -0.00429437       0.00672885      -0.00429437       0.03461232       0.00714278       0.00672885       0.00714278       0.03790848
O        7.75669287       2.51178546      11.58753404       0.00000000       0.00430493      -0.26013701       0.00469122       0.00699184      -0.00354105       0.03168103       0.00079053      -0.00911418       0.00079053       0.04079625       0.00169960      -0.00911418       0.00169960       0.03680076
O        5.27751713       1.70891766      12.05077647       0.00000000       0.00511871      -0.25861595       0.00450465      -0.00942762       0.00545678       0.03194341      -0.00077227       0.00934799      -0.00077227       0.04060712       0.00193612       0.00934799       0.00193612       0.03717742
O        3.93882578       3.11611017      13.86547409       0.00000000       0.00366839      -0.25975129      -0.00804914      -0.00107843       0.00625254       0.03953712      -0.00351374      -0.00328406      -0.00351374       0.03319913      -0.00902099      -0.00328406      -0.00902099       0.03650395
O        5.81868288       3.60955607      15.68875441       0.00000000       0.00276398      -0.25950972       0.00442863       0.00690830       0.00524954       0.03861380       0.00462279      -0.00645618       0.00462279       0.03499005       0.00741298      -0.00645618       0.00741298       0.03713256
Si       4.85672294       4.29328910       3.62196307       0.00000000       0.00036793       0.52805317       0.00081450      -0.00070948      -0.00090814       0.39551911      -0.00059611      -0.00078490      -0.00059611       0.39129565       0.00142047      -0.00078490       0.00142047       0.38935642
Si       1.32432610       6.31113224       1.80289087       0.00000000       0.00044298       0.52962426      -0.00034224      -0.00030403       0.00027741       0.39047498      -0.00425799      -0.00237228      -0.00425799       0.39440689      -0.00169231      -0.00237228      -0.00169231       0.38974215
Si       3.81525920       6.54367110      -0.01220168       0.00000000       0.00039098       0.52774724      -0.00107535      -0.00386143       0.00393160       0.39167168       0.00076719       0.00197753       0.00076719       0.39576559      -0.00052166       0.00197753      -0.00052166       0.38571190
O        3.90998564       5.42782247       4.28235869       0.00000000       0.00296284      -0.25967877      -0.00801197       0.00006016      -0.00532594       0.03977173       0.00410032       0.00300157       0.00410032       0.03333100      -0.00903734       0.00300157      -0.00903734       0.03700889
O        5.78823328       4.93097109       2.45904500       0.00000000       0.00275781      -0.25963153       0.00431317      -0.00714481      -0.00469565       0.03849803      -0.00441751       0.00619834      -0.00441751       0.03495168       0.00726772       0.00619834       0.00726772       0.03678288
O        5.26674485       6.80485543       0.65290513       0.00000000       0.00412909      -0.25966102       0.00361074       0.00702887      -0.00388060       0.03168576       0.00091360      -0.00959370       0.00091360       0.04116459       0.00233030      -0.00959370       0.00233030       0.03737858
O        2.77735586       6.05726599       1.13527085       0.00000000       0.00312323      -0.25952564       0.00370543      -0.00679691       0.00433088       0.03181715      -0.00084711       0.00923091      -0.00084711       0.04104855       0.00162690       0.00923091       0.00162690       0.03703700
O        1.42326963       7.44231381       2.96063899       0.00000000       0.00364316      -0.25965559      -0.00804005       0.00026480       0.00425810       0.03944000      -0.00381512      -0.00291270      -0.00381512       0.03361136      -0.00883482      -0.00291270      -0.00883482       0.03652018
O        3.29366203       7.93773165       4.78882310       0.00000000       0.00335844      -0.25962144       0.00389561       0.00728433       0.00406592       0.03889135       0.00478799      -0.00673569       0.00478799       0.03474903       0.00691777      -0.00673569       0.00691777       0.03669240
Si       4.77171394       4.42257294       9.26467406       0.50000000       0.05647167       0.45307582      -0.00845604      -0.02123292      -0.02104675       0.41644545      -0.00527313      -0.00021340      -0.00527313       0.35539775      -0.03161624      -0.00021340      -0.03161624       0.34810409
Si       1.28518810       6.28897813       7.19630525       0.00000000       0.00041621       0.52307255      -0.00685006      -0.00388798      -0.00366204       0.39172123      -0.00360784      -0.00282945      -0.00360784       0.38368757      -0.00224483      -0.00282945      -0.00224483       0.39179979
Si       3.80466780       6.55073505       5.44631358       0.00000000       0.00044713       0.52756259       0.00046641      -0.00218637      -0.00210695       0.39326651       0.00304615       0.00092157       0.00304615       0.39347647      -0.00275533       0.00092157      -0.00275533       0.38425044
O        5.69618186       5.06230470       8.07444211       0.00000000       0.03446582      -0.24524842       0.00878986      -0.00840094      -0.00931398       0.03942268      -0.00719671       0.00573742      -0.00719671       0.03632082       0.01019565       0.00573742       0.01019565       0.03951623
O        5.24723850       6.81355157       6.12576351       0.00000000       0.00395393      -0.25851936       0.00422672       0.00823549      -0.00586279       0.03128203       0.00072274      -0.00920541       0.00072274       0.04245127       0.00196953      -0.00920541       0.00196953       0.03701669
O        2.76673745       6.04312612       6.58765414       0.00000000       0.00311111      -0.26248480       0.00237265      -0.00544551       0.00127981       0.03030858      -0.00042508       0.00886125      -0.00042508       0.03802892       0.00259641       0.00886125       0.00259641       0.03688065
O        1.33238866       7.47662410       8.29622313       0.00000000       0.00387133      -0.26248639      -0.01240280       0.00363952       0.00268195       0.03562677      -0.00133677      -0.00372774      -0.00133677       0.03254789      -0.00806720      -0.00372774      -0.00806720       0.03516134
O        3.42826136       7.51320980       9.88523556       0.00000000       0.02743311      -0.25086313       0.00168827       0.01057992       0.00199342       0.03649327       0.00620176      -0.00695177       0.00620176       0.03597652       0.01274289      -0.00695177       0.01274289       0.04015178
Si       4.88931939       4.24778336      14.52651389       0.00000000       0.00043070       0.52702811       0.00301972      -0.00079722      -0.00111391       0.39580071      -0.00149051      -0.00036676      -0.00149051       0.39142694       0.00177535      -0.00036676       0.00177535       0.38822022
Si       1.42371543       6.19273495      12.58830915       0.00000000       0.00150829       0.53327720       0.01642905       0.01005781       0.00237736       0.40161161       0.00857724       0.00300895       0.00857724       0.39348457      -0.01026537       0.00300895      -0.01026537       0.37874469
Si       3.93208056       6.18982500      10.68903103       0.50000000       0.05433391       0.45413323      -0.02916509       0.01428812       0.01469684       0.37655468       0.02578697       0.02844044       0.02578697       0.37728941      -0.00880728       0.02844044      -0.00880728       0.37946636
O        3.93671002       5.38210215      15.17633742       0.00000000       0.00278525      -0.26091524      -0.00819145      -0.00020955      -0.00329955       0.03893014       0.00393180       0.00299371       0.00393180       0.03244078      -0.00906621       0.00299371      -0.00906621       0.03766490
O        5.84461853       4.88974077      13.38614711       0.00000000       0.00565376      -0.25957403       0.00578809      -0.00734253      -0.00187301       0.03767801      -0.00406549       0.00612747      -0.00406549       0.03529645       0.00769524       0.00612747       0.00769524       0.03609849
O        5.27789670       6.65768759      11.49643922       0.00000000       0.03486269      -0.24672392       0.00469433       0.01208178       0.00146324       0.03237621      -0.00072084      -0.01116326      -0.00072084       0.04236276       0.00212680      -0.01116326       0.00212680       0.03597070
O        2.79972198       5.80573824      11.81168980       0.00000000       0.01603716      -0.25585236      -0.00142004      -0.00281247       0.00747444       0.02841270      -0.00090346       0.00934767      -0.00090346       0.03784639       0.00202303       0.00934767       0.00202303       0.03659499
O        1.62052165       7.33712844      13.72387563       0.00000000       0.00544408      -0.25807878      -0.00630649       0.00085970       0.00428419       0.04187034      -0.00611543      -0.00571822      -0.00611543       0.03313396      -0.00862568      -0.00571822      -0.00862568       0.03851955
O        3.35526448       7.90189588      15.65618713       0.00000000       0.00282462      -0.26025892       0.00436705       0.00766885       0.00540104       0.03825371       0.00513089      -0.00649399       0.00513089       0.03411588       0.00660350      -0.00649399       0.00660350       0.03661260
Si       2.37578284       8.57576005       3.61523971       0.00000000       0.00048867       0.52895545       0.00092640      -0.00033721      -0.00137738       0.40073935      -0.00212466       0.00031781      -0.00212466       0.38692448       0.00144911       0.00031781       0.00144911       0.38879656
Si      -1.12298935      10.60565423       1.78673071       0.00000000       0.00057844       0.53021145       0.00316610       0.00618411       0.00162329       0.39245693      -0.00006924      -0.00066407      -0.00006924       0.39501418      -0.00486684      -0.00066407      -0.00486684       0.38598349
Si       1.35149830      10.78426388      -0.06267409       0.00000000       0.00055723       0.53118568      -0.00039890      -0.00590775      -0.00228837       0.39314125       0.00417819       0.00261230       0.00417819       0.39725040      -0.00297814       0.00261230      -0.00297814       0.38776331
O        1.44241086       9.72971283       4.26009440       0.00000000       0.00462224      -0.25914356      -0.00805555       0.00018908      -0.00490687       0.03975406       0.00428433       0.00279358       0.00428433       0.03362741      -0.00900861       0.00279358      -0.00900861       0.03730261
O        3.33146199       9.19815643       2.46269750       0.00000000       0.00468080      -0.25908521       0.00446899      -0.00701540      -0.00440660       0.03816780      -0.00439147       0.00629891      -0.00439147       0.03507846       0.00694744       0.00629891       0.00694744       0.03691291
O        2.80588252      11.03076680       0.60728150       0.00000000       0.00446194      -0.25948085       0.00373952       0.00643886      -0.00419869       0.03127831       0.00098585      -0.00908330       0.00098585       0.04157913       0.00240659      -0.00908330       0.00240659       0.03687309
O        0.31994327      10.33324614       1.10514209       0.00000000       0.00544372      -0.25894661       0.00358424      -0.00683187       0.00433567       0.03145513      -0.00115859       0.00926558      -0.00115859       0.04148500       0.00221381       0.00926558       0.00221381       0.03733047
O       -1.02863040      11.72869862       2.95567069       0.00000000       0.00493513      -0.25881372      -0.00726121      -0.00006803       0.00396091       0.03981422      -0.00423450      -0.00327037      -0.00423450       0.03353343      -0.00868337      -0.00327037      -0.00868337       0.03679068
O        0.83428845      12.23228379       4.79765615       0.00000000       0.00527897      -0.25932295       0.00448807       0.00688553       0.00426010       0.03806130       0.00494641      -0.00626708       0.00494641       0.03441001       0.00663271      -0.00626708       0.00663271       0.03677171
Si       2.43317186       8.43363736       9.00129089       0.00000000       0.00184888       0.52996054       0.00744881       0.01129030       0.01852732       0.39109623       0.00640695       0.01275122       0.00640695       0.38081824       0.00327183       0.01275122       0.00327183       0.41242104
Si      -1.13178983      10.57609674       7.22057628       0.00000000       0.00050371       0.52897383      -0.00193829      -0.00211645       0.00186472       0.39568120      -0.00765169       0.00196522      -0.00765169       0.39464911      -0.00079388       0.00196522      -0.00079388       0.39385523
Si       1.35682741      10.84136893       5.43789080       0.00000000       0.00048673       0.52831776       0.00194454      -0.00191422      -0.00044731       0.39005628       0.00475343      -0.00018571       0.00475343       0.39482080      -0.00213360      -0.00018571      -0.00213360       0.38646318
O        1.62136421       9.51222141       9.88526830       0.00000000       0.01209788      -0.25531817      -0.00653832      -0.00003954      -0.00148547       0.04440746       0.00197915       0.00690308       0.00197915       0.03413447      -0.01230221       0.00690308      -0.01230221       0.03878937
O        3.32499879       9.18665792       7.87749050       0.00000000       0.00231851      -0.25963433       0.00367763      -0.00506126      -0.00562882       0.03888336      -0.00477221       0.00619886      -0.00477221       0.03346188       0.00819857       0.00619886       0.00819857       0.03767997
O        2.81051434      11.09652174       6.10425176       0.00000000       0.00255819      -0.25968901       0.00379909       0.00706054      -0.00454796       0.03154439       0.00096311      -0.00888862       0.00096311       0.04062504       0.00207642      -0.00888862       0.00207642       0.03736080
O        0.33584275      10.32025370       6.58660229       0.00000000       0.00472863      -0.25979465       0.00394344      -0.00721531       0.00407139       0.03157185      -0.00044439       0.00914926      -0.00044439       0.04024090       0.00249445       0.00914926       0.00249445       0.03800710
O       -1.05356291      11.72295323       8.36356561       0.00000000       0.00432047      -0.26078223      -0.00877197       0.00060404       0.00406709       0.03870715      -0.00348463      -0.00282773      -0.00348463       0.03376807      -0.00909752      -0.00282773      -0.00909752       0.03648377
O        0.90680386      12.07813296      10.11407769       0.00000000       0.00620452      -0.25828117       0.00384144       0.00560094       0.00274265       0.03811679       0.00474616      -0.00682886       0.00474616       0.03712342       0.00957619      -0.00682886       0.00957619       0.03769202
Si       2.45074044       8.51505097      14.45974611       0.00000000       0.00068787       0.53084359      -0.00948883      -0.00177215      -0.00354535       0.41430415       0.00258321       0.00156843       0.00258321       0.38714397      -0.00280428       0.00156843      -0.00280428       0.38140520
Si      -1.11233351      10.57142311      12.67355871       0.00000000       0.00051652       0.52866342      -0.00017073       0.00031483      -0.00235729       0.38860305      -0.00431426      -0.00372380      -0.00431426       0.39652806      -0.00154753      -0.00372380      -0.00154753       0.38825391
Si       1.42145471      10.75892630      10.89561837       0.00000000       0.00086769       0.53197902      -0.00439061      -0.00174709      -0.00943880       0.39413752       0.00097808       0.00706322       0.00097808       0.39040155       0.00132788       0.00706322       0.00132788       0.40398702
O        1.45269468       9.61228261      15.12470078       0.00000000       0.00457409      -0.25921360      -0.00743933      -0.00049289      -0.00360585       0.03738708       0.00388476       0.00220049       0.00388476       0.03387095      -0.00695787       0.00220049      -0.00695787       0.03647519
O        3.40136059       9.20647740      13.34677957       0.00000000       0.00337392      -0.26235749       0.00439312      -0.00499095      -0.00290348       0.03710269      -0.00472208       0.00663302      -0.00472208       0.03276287       0.00700749       0.00663302       0.00700749       0.03848644
O        2.83565017      11.12338230      11.59348834       0.00000000       0.00525977      -0.26016689       0.00357472       0.00909671      -0.00334031       0.03218501       0.00049574      -0.00941868       0.00049574       0.04006372       0.00143111      -0.00941868       0.00143111       0.03646559
O        0.34945103      10.31687852      12.02874041       0.00000000       0.00354634      -0.25983218       0.00317067      -0.00633014       0.00463020       0.03120132      -0.00041215       0.00973811      -0.00041215       0.04131791       0.00143213       0.00973811       0.00143213       0.03700147
O       -1.02821522      11.70303691      13.83163695       0.00000000       0.00469187      -0.25951944      -0.00843044       0.00011725       0.00486172       0.03921726      -0.00370023      -0.00286576      -0.00370023       0.03339059      -0.00900653      -0.00286576      -0.00900653       0.03705046
O        0.89527583      12.15158388      15.61522159       0.00000000       0.00532309      -0.25957093       0.00425166       0.00669613       0.00420763       0.03782567       0.00442912      -0.00639299       0.00442912       0.03476284       0.00747748      -0.00639299       0.00747748       0.03740076
Si      12.27489292      -0.00754596       3.62370289       0.00000000       0.00056404       0.52961769       0.00017670      -0.00306841       0.00035577       0.39901644      -0.00027801      -0.00211193      -0.00027801       0.38898212      -0.00018976      -0.00211193      -0.00018976       0.38544977
Si       8.75736204       2.03541132       1.84846393       0.00000000       0.00063146       0.52964761       0.00031897      -0.00338022      -0.00090860       0.39141430      -0.00763598      -0.00116334      -0.00763598       0.40242880       0.00150862      -0.00116334       0.00150862       0.38711379
Si      11.23850496       2.27954727       0.03482781       0.00000000       0.00059903       0.52906362      -0.00351421       0.00038894       0.00263251       0.39005124       0.00469381       0.00320602       0.00469381       0.39620700       0.00101067       0.00320602       0.00101067       0.38804500
O       11.34039609       1.14593408       4.27098468       0.00000000       0.00529747      -0.25899453      -0.00783840       0.00012604      -0.00451782       0.03960042       0.00401576       0.00263430       0.00401576       0.03348334      -0.00882103       0.00263430      -0.00882103       0.03682044
O       13.23049848       0.61425133       2.46856426       0.00000000       0.00551887      -0.25869371       0.00444277      -0.00710856      -0.00448958       0.03828780      -0.00432226       0.00623578      -0.00432226       0.03476807       0.00649576       0.00623578       0.00649576       0.03688286
O       12.69691894       2.52666327       0.69026144       0.00000000       0.00661007      -0.25851415       0.00385145       0.00721416      -0.00428310       0.03207393       0.00078594      -0.00952659       0.00078594       0.04151092       0.00198228      -0.00952659       0.00198228       0.03732893
O       10.21388277       1.77399928       1.18819223       0.00000000       0.00531804      -0.25848195       0.00363303      -0.00701169       0.00435769       0.03197365      -0.00024420       0.00870405      -0.00024420       0.04154586       0.00186875       0.00870405       0.00186875       0.03696327
O        8.84733885       3.18349855       2.98641178       0.00000000       0.00612267      -0.25913921      -0.00840298       0.00051569       0.00437045       0.03985962      -0.00398010      -0.00264212      -0.00398010       0.03313796      -0.00936242      -0.00264212      -0.00936242       0.03744779
O       10.75448473       3.66396430       4.78232265       0.00000000       0.00450044      -0.25904574       0.00444498       0.00674915       0.00421989       0.03789562       0.00445925      -0.00628118       0.00445925       0.03488748       0.00675788      -0.00628118       0.00675788       0.03716856
Si      12.29433673      -0.00747478       9.08188545       0.00000000       0.00039884       0.52901011       0.00022083      -0.00295717      -0.00188632       0.39958440      -0.00248144      -0.00091560      -0.00248144       0.38579124      -0.00000140      -0.00091560      -0.00000140       0.38716918
Si       8.78022502       2.00684201       7.27072624       0.00000000       0.00046502       0.52882021      -0.00064927       0.00028064       0.00098785       0.39064922      -0.00491495      -0.00240058      -0.00491495       0.39457559      -0.00149624      -0.00240058      -0.00149624       0.38664861
Si      11.25583111       2.27029161       5.43796495       0.00000000       0.00053249       0.52965186      -0.00097859      -0.00122924      -0.00088169       0.39200897       0.00360228       0.00164841       0.00360228       0.39417652      -0.00130481       0.00164841      -0.00130481       0.38554400
O       11.35061514       1.14389759       9.71706554       0.00000000       0.00391197      -0.25961763      -0.00801071       0.00021583      -0.00498484       0.03929927       0.00416608       0.00278176       0.00416608       0.03345472      -0.00872686       0.00278176      -0.00872686       0.03696872
O       13.21595218       0.61099219       7.89829756       0.00000000       0.00369226      -0.25903820       0.00413970      -0.00715093      -0.00497946       0.03851077      -0.00428877       0.00623086      -0.00428877       0.03495221       0.00644466       0.00623086       0.00644466       0.03663726
O       12.70927484       2.51624726       6.10861240       0.00000000       0.00464709      -0.25889788       0.00372888       0.00701951      -0.00459918       0.03166698       0.00097574      -0.00897646       0.00097574       0.04120104       0.00207849      -0.00897646       0.00207849       0.03714599
O       10.22851419       1.76916183       6.58802171       0.00000000       0.00470512      -0.25931735       0.00370518      -0.00696442       0.00396854       0.03154205      -0.00099591       0.00930107      -0.00099591       0.04140231       0.00182881       0.00930107       0.00182881       0.03703680
O        8.88089998       3.12293769       8.44451772       0.00000000       0.00383588      -0.26083462      -0.00665510      -0.00057349       0.00422483       0.03909202      -0.00389117      -0.00270709      -0.00389117       0.03304445      -0.00864033      -0.00270709      -0.00864033       0.03636464
O       10.75833068       3.65002735      10.25965217       0.00000000       0.00329285      -0.25951647       0.00449796       0.00715826       0.00467492       0.03811395       0.00429958      -0.00621184       0.00429958       0.03436886       0.00648648      -0.00621184       0.00648648       0.03689391
Si      12.32358576      -0.00613022      14.57312966       0.00000000       0.00052330       0.52860033       0.00404435       0.00214858       0.00086028       0.39768389       0.00124714       0.00062695       0.00124714       0.38707876       0.00356581       0.00062695       0.00356581       0.39024288
Si       8.79562403       1.99284165      12.71793824       0.00000000       0.00052305       0.52932847      -0.00116454      -0.00042260      -0.00086672       0.38952717      -0.00392513      -0.00194404      -0.00392513       0.39727776       0.00079183      -0.00194404       0.00079183       0.39444470
Si      11.26875337       2.25221641      10.89809040       0.00000000       0.00043478       0.52844056       0.00180275      -0.00058687       0.00124801       0.39029669       0.00419182       0.00077614       0.00419182       0.39579691      -0.00105788       0.00077614      -0.00105788       0.38656330
O       11.36425205       1.12599275      15.21663881       0.00000000       0.00512799      -0.25912570      -0.00838779      -0.00010240      -0.00470689       0.03986338       0.00374368       0.00284595       0.00374368       0.03346326      -0.00939115       0.00284595      -0.00939115       0.03752970
O       13.25322352       0.63076177      13.40599534       0.00000000       0.00428133      -0.25882962       0.00425085      -0.00695494      -0.00438499       0.03851672      -0.00446995       0.00619989      -0.00446995       0.03493455       0.00696420       0.00619989       0.00696420       0.03731800
O       12.72170551       2.49118826      11.57120782       0.00000000       0.00426562      -0.25881664       0.00357183       0.00660075      -0.00432441       0.03182387       0.00086552      -0.00929733       0.00086552       0.04164033       0.00188431      -0.00929733       0.00188431       0.03728281
O       10.24097291       1.73431038      12.03875463       0.00000000       0.00373561      -0.25965141       0.00405929      -0.00737648       0.00445578       0.03213329      -0.00084391       0.00966253      -0.00084391       0.04091604       0.00193277       0.00966253       0.00193277       0.03727613
O        8.91420167       3.10989100      13.88495966       0.00000000       0.00357234      -0.25937905      -0.00757944      -0.00030786       0.00508690       0.04007611      -0.00383660      -0.00318238      -0.00383660       0.03367578      -0.00943920      -0.00318238      -0.00943920       0.03716288
O       10.76570942       3.64279540      15.71546173       0.00000000       0.00393274      -0.25886047       0.00400755       0.00709989       0.00471842       0.03832970       0.00450305      -0.00642061       0.00450305       0.03488625       0.00643548      -0.00642061       0.00643548       0.03702706
Si       9.80815210       4.31087144       3.63456842       0.00000000       0.00058072       0.52948303       0.00508558       0.00292065       0.00033030       0.39698288       0.00063591       0.00098139       0.00063591       0.39195099       0.00328997       0.00098139       0.00328997       0.38730878
Si       6.30117707       6.31746524       1.80112118       0.00000000       0.00047048       0.52897742      -0.00019292       0.00184689       0.00160274       0.39097744      -0.00666041      -0.00266029      -0.00666041       0.39693471      -0.00223450      -0.00266029      -0.00223450       0.38955712
Si       8.76497836       6.56192936      -0.03359488       0.00000000       0.00067837       0.52897361      -0.00084704       0.00321308       0.00096786       0.39124432       0.00559261       0.00140112       0.00559261       0.40001265       0.00088011       0.00140112       0.00088011       0.38584381
O        8.86404563       5.44048049       4.30435808       0.00000000       0.00464522      -0.25911782      -0.00779921      -0.00018495      -0.00500858       0.04021143       0.00403068       0.00300107       0.00403068       0.03337491      -0.00948649       0.00300107      -0.00948649       0.03753442
O       10.73252957       4.94813724       2.46326637       0.00000000       0.00450350      -0.25864119       0.00399026      -0.00680960      -0.00427972       0.03845233      -0.00490048       0.00607508      -0.00490048       0.03505134       0.00693777       0.00607508       0.00693777       0.03706645
O       10.22234641       6.81740246       0.62424208       0.00000000       0.00608503      -0.25838060       0.00386980       0.00700461      -0.00430839       0.03174663       0.00052287      -0.00885704       0.00052287       0.04165664       0.00177768      -0.00885704       0.00177768       0.03692797
O        7.75192782       6.06749449       1.13118791       0.00000000       0.00496885      -0.25895024       0.00400484      -0.00748732       0.00473432       0.03179708      -0.00067531       0.00940439      -0.00067531       0.04179875       0.00188288       0.00940439       0.00188288       0.03735127
O        6.40389307       7.45117740       2.95502303       0.00000000       0.00425201      -0.25921642      -0.00792672       0.00022016       0.00401885       0.03998142      -0.00367240      -0.00312129      -0.00367240       0.03353134      -0.00932183      -0.00312129      -0.00932183       0.03725716
O        8.23585387       7.93867753       4.82618969       0.00000000       0.00582189      -0.25846647       0.00394996       0.00702232       0.00434826       0.03899226       0.00479538      -0.00680895       0.00479538       0.03449127       0.00664027      -0.00680895       0.00664027       0.03760400
Si       9.82583744       4.27047056       9.08582615       0.00000000       0.00038314       0.52757748       0.00104875      -0.00173096      -0.00021664       0.39894255      -0.00066346      -0.00101748      -0.00066346       0.38395283       0.00209087      -0.00101748       0.00209087       0.38746408
Si       6.27077727       6.35678677       7.29737565       0.00000000       0.00204619       0.52852205       0.00488011      -0.00946029      -0.00477429       0.38537293      -0.00531639       0.00537006      -0.00531639       0.41403741      -0.00079311       0.00537006      -0.00079311       0.37673212
Si       8.74480042       6.54738766       5.48125838       0.00000000       0.00068968       0.53089181      -0.00315796      -0.00180998       0.00405178       0.39210075       0.00282698       0.00172789       0.00282698       0.39972497      -0.00042749       0.00172789      -0.00042749       0.38969643
O        8.88837565       5.42692187       9.72103242       0.00000000       0.00251418      -0.26197152      -0.00629541       0.00019501      -0.00449373       0.03852689       0.00391628       0.00268863       0.00391628       0.03285119      -0.00874282       0.00268863      -0.00874282       0.03602315
O       10.76626533       4.89266710       7.91952133       0.00000000       0.00274953      -0.25986308       0.00470567      -0.00739877      -0.00459659       0.03780888      -0.00408668       0.00633125      -0.00408668       0.03464339       0.00659507       0.00633125       0.00659507       0.03662493
O       10.19141683       6.80616473       6.15946494       0.00000000       0.00425811      -0.25961381       0.00386344       0.00705373      -0.00401365       0.03176427       0.00104405      -0.00974759       0.00104405       0.04095739       0.00179301      -0.00974759       0.00179301       0.03757491
O        7.70503081       6.02438342       6.61525623       0.00000000       0.00736192      -0.25761276       0.00417799      -0.00743112       0.00304249       0.03223425       0.00011336       0.00782648       0.00011336       0.04135654       0.00127788       0.00782648       0.00127788       0.03664969
O        6.41934986       7.54497417       8.38240083       0.00000000       0.00655545      -0.26060614      -0.00641332       0.00331153       0.00238391       0.03804863      -0.00477779      -0.00298238      -0.00477779       0.03188626      -0.00979509      -0.00298238      -0.00979509       0.03817789
O        8.30080244       7.94062620      10.23626089       0.00000000       0.00264774      -0.25915578       0.00501185       0.00692996       0.00402780       0.03888684       0.00478581      -0.00603263       0.00478581       0.03459894       0.00691305      -0.00603263       0.00691305       0.03692106
Si       9.84717542       4.26314801      14.52991368       0.00000000       0.00047123       0.52916524       0.00485053      -0.00164781      -0.00237419       0.39920084      -0.00125346       0.00001450      -0.00125346       0.38610698       0.00464749       0.00001450       0.00464749       0.38925328
Si       6.31714746       6.26842617      12.67841727       0.00000000       0.00207788       0.52964792      -0.00576079       0.01094727       0.00376654       0.39207269      -0.01422100      -0.00574967      -0.01422100       0.39771901      -0.00850309      -0.00574967      -0.00850309       0.38632130
Si       8.81002473       6.54868177      10.89000394       0.00000000       0.00034325       0.52809550       0.00144343       0.00196168       0.00016564       0.39000387       0.00377081       0.00060238       0.00377081       0.39448379      -0.00160396       0.00060238      -0.00160396       0.38650959
O        8.88268130       5.39990324      15.15688544       0.00000000       0.00501510      -0.25987555      -0.00825204      -0.00053317      -0.00442948       0.03948649       0.00392571       0.00264319       0.00392571       0.03311042      -0.00901773       0.00264319      -0.00901773       0.03703128
O       10.79463997       4.90259279      13.37737876       0.00000000       0.00408675      -0.25905766       0.00445861      -0.00672621      -0.00405060       0.03776667      -0.00407451       0.00622246      -0.00407451       0.03490852       0.00651200       0.00622246       0.00651200       0.03688424
O       10.26569118       6.78509014      11.55881339       0.00000000       0.00341769      -0.25928913       0.00409997       0.00674541      -0.00426984       0.03163324       0.00091730      -0.00911164       0.00091730       0.04135847       0.00181766      -0.00911164       0.00181766       0.03702980
O        7.78874127       6.04247712      12.04196703       0.00000000       0.00293271      -0.26000109       0.00584215      -0.00701157       0.00563549       0.03112331      -0.00112099       0.00903864      -0.00112099       0.04111723       0.00181047       0.00903864       0.00181047       0.03674274
O        6.37829218       7.45047376      13.79291185       0.00000000       0.01526696      -0.25355358      -0.00733301       0.00131511       0.00456931       0.03975281      -0.00352655      -0.00154940      -0.00352655       0.03441075      -0.00923011      -0.00154940      -0.00923011       0.03970415
O        8.27073572       7.90909974      15.63299600       0.00000000       0.00701567      -0.25773322       0.00450665       0.00669531       0.00478313       0.03921698       0.00548500      -0.00581808       0.00548500       0.03492012       0.00741582      -0.00581808       0.00741582       0.03799090
Si       7.34478608       8.58093815       3.63192085       0.00000000       0.00060351       0.52938881       0.00470112      -0.00302551      -0.00280011       0.40104848      -0.00260875      -0.00047984      -0.00260875       0.38763754       0.00314675      -0.00047984       0.00314675       0.38793486
Si       3.83052052      10.57995267       1.78164181       0.00000000       0.00054231       0.52980014      -0.00312452       0.00352202       0.00101965       0.39102371      -0.00785157      -0.00369729      -0.00785157       0.39748848      -0.00249228      -0.00369729      -0.00249228       0.38509388
Si       6.32123660      10.84768547      -0.01203225       0.00000000       0.00053589       0.52968674       0.00190182      -0.00246936      -0.00088357       0.39099856       0.00233627       0.00066516       0.00233627       0.39544430      -0.00264236       0.00066516      -0.00264236       0.38510630
O        6.39041051       9.72545327       4.26151457       0.00000000       0.00559373      -0.25939462      -0.00857114       0.00011604      -0.00509633       0.03952623       0.00417039       0.00258274       0.00417039       0.03325907      -0.00898207       0.00258274      -0.00898207       0.03715290
O        8.31774410       9.22110745       2.50136558       0.00000000       0.00525486      -0.25894746       0.00442067      -0.00660001      -0.00396067       0.03734975      -0.00415673       0.00617519      -0.00415673       0.03494526       0.00666705       0.00617519       0.00666705       0.03738754
O        7.77310968      11.07674657       0.66545261       0.00000000       0.00487149      -0.25907878       0.00356123       0.00670968      -0.00418911       0.03132123       0.00112399      -0.00931841       0.00112399       0.04195253       0.00194373      -0.00931841       0.00194373       0.03718925
O        5.29139787      10.33401063       1.13011896       0.00000000       0.00510169      -0.25942862       0.00374416      -0.00731112       0.00444961       0.03151111      -0.00104086       0.00900890      -0.00104086       0.04118409       0.00188838       0.00900890       0.00188838       0.03696513
O        3.91107926      11.73323890       2.92284693       0.00000000       0.00461635      -0.25922356      -0.00769432       0.00017747       0.00397094       0.03914934      -0.00350428      -0.00241975      -0.00350428       0.03286446      -0.00861000      -0.00241975      -0.00861000       0.03745298
O        5.79173835      12.23034638       4.76403238       0.00000000       0.00523610      -0.25896366       0.00400747       0.00680206       0.00449869       0.03883602       0.00491289      -0.00599622       0.00491289       0.03453374       0.00679135      -0.00599622       0.00679135       0.03684156
Si       7.39442773       8.62452379       9.07764364       0.00000000       0.00057657       0.52826383       0.00768972      -0.00126070       0.00227107       0.39475098       0.00018757      -0.00216804       0.00018757       0.39386230       0.00516315      -0.00216804       0.00516315       0.39039901
Si       3.83965205      10.58495882       7.25009171       0.00000000       0.00038110       0.53021998      -0.00342874       0.00115840       0.00253058       0.39063772      -0.00710047      -0.00560257      -0.00710047       0.39452449      -0.00301343      -0.00560257      -0.00301343       0.39058485
Si       6.31400480      10.84867116       5.42766318       0.00000000       0.00056520       0.52908777       0.00166845       0.00107112       0.00228559       0.39036447       0.00563258       0.00176916       0.00563258       0.39814562      -0.00115501       0.00176916      -0.00115501       0.38573874
O        6.45753437       9.76617162       9.73433371       0.00000000       0.00249603      -0.26152317      -0.00744357       0.00078529      -0.00498023       0.04032042       0.00430096       0.00278437       0.00430096       0.03290906      -0.00989588       0.00278437      -0.00989588       0.03684647
O        8.35999484       9.26113689       7.94400268       0.00000000       0.00526357      -0.25890658       0.00485929      -0.00682095      -0.00398199       0.03774526      -0.00457217       0.00663180      -0.00457217       0.03554546       0.00734688       0.00663180       0.00734688       0.03748793
O        7.77399238      11.09149519       6.08535296       0.00000000       0.00425564      -0.25859659       0.00338262       0.00655062      -0.00428183       0.03168518       0.00065886      -0.00926854       0.00065886       0.04184636       0.00147512      -0.00926854       0.00147512       0.03732835
O        5.29552722      10.34937389       6.58460136       0.00000000       0.00487250      -0.25957754       0.00386375      -0.00685009       0.00414445       0.03184545      -0.00089554       0.00939044      -0.00089554       0.04122524       0.00206897       0.00939044       0.00206897       0.03684428
O        3.94400642      11.69592077       8.42964639       0.00000000       0.00325573      -0.25966578      -0.00747669       0.00013017       0.00430288       0.03891259      -0.00353356      -0.00212741      -0.00353356       0.03347281      -0.00867669      -0.00212741      -0.00867669       0.03680445
O        5.83794030      12.27244410      10.22272651       0.00000000       0.00311731      -0.25911678       0.00441361       0.00756613       0.00464689       0.03841990       0.00432931      -0.00622633       0.00432931       0.03453168       0.00658700      -0.00622633       0.00658700       0.03731864
Si       7.34442226       8.56274302      14.47153095       0.00000000       0.00103821       0.53186922      -0.00143863      -0.00647153      -0.00049487       0.40206015      -0.00066140      -0.00189281      -0.00066140       0.38994313       0.00010527      -0.00189281       0.00010527       0.38524142
Si       3.88522602      10.61350008      12.71737134       0.00000000       0.00052722       0.52760754      -0.00057578      -0.00004784      -0.00475861       0.38852311      -0.00089332      -0.00404247      -0.00089332       0.40087348       0.00593778      -0.00404247       0.00593778       0.39679924
Si       6.36039103      10.89384542      10.89075566       0.00000000       0.00043561       0.52714876       0.00030493       0.00265211       0.00072536       0.39235080       0.00804034      -0.00172560       0.00804034       0.39891363       0.00129782      -0.00172560       0.00129782       0.38694525
O        6.42772487       9.71629488      15.14417107       0.00000000       0.00382601      -0.25927674      -0.00795587       0.00064627      -0.00422263       0.03954874       0.00412248       0.00292151       0.00412248       0.03371786      -0.00874271       0.00292151      -0.00874271       0.03661129
O        8.29393459       9.20082200      13.31942474       0.00000000       0.00389066      -0.25955100       0.00458285      -0.00636433      -0.00420153       0.03783453      -0.00453589       0.00622182      -0.00453589       0.03443962       0.00613139       0.00622182       0.00613139       0.03667408
O        7.81384157      11.14649982      11.55617704       0.00000000       0.00364791      -0.25920934       0.00411702       0.00790653      -0.00433856       0.03200718       0.00052991      -0.00899732       0.00052991       0.04072167       0.00201339      -0.00899732       0.00201339       0.03752370
O        5.33537947      10.38725713      12.03793539       0.00000000       0.00370360      -0.26027048       0.00399528      -0.00583730       0.00479804       0.03187275      -0.00072434       0.01003420      -0.00072434       0.04182024       0.00260173       0.01003420       0.00260173       0.03712979
O        3.97019208      11.71834958      13.89652355       0.00000000       0.00433212      -0.25866162      -0.00869482       0.00002688       0.00530441       0.04016011      -0.00380676      -0.00285360      -0.00380676       0.03392516      -0.00934115      -0.00285360      -0.00934115       0.03711901
O        5.85645806      12.22951764      15.69888270       0.00000000       0.00426089      -0.25879912       0.00422286       0.00711687       0.00488274       0.03825125       0.00415317      -0.00637847       0.00415317       0.03477043       0.00626436      -0.00637847       0.00626436       0.03673609
