143
Lattice="9.824780000000002 0.0 0.0 0.0 10.8077 0.0 0.0 0.0 17.017018133186554" Properties=species:S:1:pos:R:3:dft_forces:R:3:dft_hirshfeld:R:1:dft_atomic_multipoles:R:9:positive_mpoles:R:9:neutral_mpoles:R:9:mp_diff:R:1 dft_energy=-574126.370321255 dft_calculation_time=255.138 dft_number_of_scf_cylces=20.0 dft_VBM=-9.45085239 dft_CBM=-3.69452266 dft_fermi_level=-3.73704463 positive_calc_scf=92.0 pbc="T T T"
Si       3.52279366       1.78693937       6.17170250       0.66831064      -1.40106950       4.93835590       0.56741026       0.00245178      -0.00039474       0.00012602      -0.00075095       0.00073857      -0.00048982       0.00073800      -0.00033082      -0.00088798       0.45157551       0.00792851       0.05481327       0.01205500      -0.02096433       0.01469209       0.03173456       0.05800196      -0.01769979       0.44912373       0.00832325       0.05468725       0.01280595      -0.02170290       0.01518191       0.03099656       0.05833278      -0.01681181       0.00245178
Si       3.67664517       3.93971003       2.33909297      -2.21556465      -5.58654255      -3.77177608       0.58087987       0.00371218       0.00289179      -0.00000865      -0.00038819      -0.00109497      -0.00224055      -0.00138167      -0.00166468      -0.00138518       0.46895752       0.02501492       0.02909559      -0.03992278      -0.01352636       0.03176836      -0.00950750      -0.08372574      -0.00850333       0.46524534       0.02212313       0.02910424      -0.03953459      -0.01243139       0.03400891      -0.00812583      -0.08206106      -0.00711815       0.00371218
Si       2.62001428       5.63913222      -0.14429040      -2.74782817      -4.72927365      -0.78716985       0.58560209       0.00862403      -0.00639446      -0.00444036      -0.00399991       0.00598983       0.00447936      -0.00306670       0.00332247      -0.00205806       0.48983670       0.00751284       0.01684188       0.09232064       0.03789427       0.03285158      -0.05744083       0.03666293       0.01663743       0.48121267       0.01390730       0.02128224       0.09632055       0.03190444       0.02837222      -0.05437413       0.03334046       0.01869549       0.00862403
O        3.49010775       0.44436087       7.22025742       0.86364775       1.62070984      -0.08999671      -0.28644480       0.00306173       0.00132807      -0.00100552      -0.00306728      -0.00066587       0.00049175      -0.00059270       0.00024777       0.00092356      -0.23819710      -0.00229726      -0.01642053       0.00297234       0.00386811       0.08330581      -0.00167688       0.02171560      -0.01425128      -0.24125883      -0.00362533      -0.01541501       0.00603962       0.00453398       0.08281406      -0.00108418       0.02146783      -0.01517484       0.00306173
O        2.05850133       2.29586351       6.20806968      -1.17405304      -0.52742554      -1.07192551      -0.27234600       0.00290267       0.00021673      -0.00038533      -0.00031059       0.00043087      -0.00028245       0.00050438       0.00019451      -0.00021778      -0.20073658      -0.02136078      -0.00836453      -0.02529381       0.10285732      -0.00759894       0.07414225       0.02755225      -0.01774392      -0.20363925      -0.02157751      -0.00797920      -0.02498322       0.10242645      -0.00731649       0.07363787       0.02735774      -0.01752614       0.00290267
O        1.57950194       4.19037248       7.65998612       0.46575533       2.09578263       3.25566082      -0.28113450       0.00301256      -0.00006470      -0.00082873      -0.00001106      -0.00044656      -0.00071657      -0.00025065      -0.00010490       0.00014487      -0.22193953      -0.00944540       0.01986457       0.00740371      -0.07148831      -0.07177029      -0.03822199      -0.03592042       0.00763236      -0.22495209      -0.00938070       0.02069330       0.00741477      -0.07104175      -0.07105372      -0.03797134      -0.03581552       0.00748749       0.00301256
O        3.34556829       4.98724292       1.25097853      -0.60934991       3.41586683      -3.01077005      -0.27174466       0.01056122       0.00403205       0.00680643       0.00422126       0.00243846       0.00289137      -0.00054321       0.00131139       0.00010325      -0.20030690       0.02542406      -0.01359854       0.00993082       0.03144741       0.09024637      -0.02506810      -0.03704999      -0.00127636      -0.21086812       0.02139201      -0.02040497       0.00570956       0.02900895       0.08735500      -0.02452489      -0.03836138      -0.00137961       0.01056122
O        2.24928831       3.08912533       2.66069374       2.86169796       2.96082576       2.28960506      -0.27689920       0.00466483      -0.00056783       0.00638533       0.00005872      -0.00028401       0.00024583       0.00044062      -0.00035667      -0.00013814      -0.21818495       0.02205897       0.01024847       0.01052695      -0.07479452      -0.02670673       0.02931275      -0.00777651      -0.00938916      -0.22284978       0.02262680       0.00386314       0.01046823      -0.07451051      -0.02695256       0.02887213      -0.00741984      -0.00925102       0.00466483
O        1.75125445       1.69733785       0.57673111      -0.43875556      -1.54191088       1.90693913      -0.30150614       0.02248418      -0.00542461       0.00472754      -0.00138796       0.00879648      -0.00228843      -0.00521796       0.00068758       0.00022246      -0.24752135       0.02643559      -0.00739330       0.00042670       0.05120568      -0.01592398       0.00314260       0.02117178       0.00326924      -0.27000553       0.03186020      -0.01212084       0.00181466       0.04240920      -0.01363555       0.00836056       0.02048420       0.00304678       0.02248418
Si       1.22231448       2.03793840       2.25890867      -2.13216487      -0.22885213      -7.61858887       0.57080720       0.00512716      -0.00169627      -0.00060697       0.00039607      -0.00123010       0.00427864       0.00262055      -0.00181683       0.00112480       0.47905416       0.00472621       0.08568375      -0.02609179      -0.07469985       0.07219734       0.09489727      -0.07813660       0.03798960       0.47392700       0.00642248       0.08629072      -0.02648786      -0.07346975       0.06791870       0.09227672      -0.07631977       0.03686480       0.00512716
Si       1.02037935       3.46339690       6.41570916      -0.88196489       1.24265931      -2.13793154       0.54750992       0.00368447       0.00025402      -0.00029564      -0.00050023      -0.00014027       0.00037582      -0.00011954       0.00031958       0.00017675       0.44489757      -0.00117486      -0.04373333      -0.06486877      -0.04748550       0.03337687       0.04158084       0.02808082      -0.01054693       0.44121310      -0.00142888      -0.04343769      -0.06436854      -0.04734523       0.03300105       0.04170038       0.02776124      -0.01072368       0.00368447
Si       5.06159180       5.51486349       4.48062400       4.43424097       1.14856131      -3.11028946       0.48445545       0.00494243      -0.00044994       0.00054761      -0.00189295       0.00046469      -0.00042563      -0.00087610      -0.00112329       0.00108676       0.38959771      -0.03196079      -0.00954004      -0.00583050       0.08171519      -0.10156046      -0.06616464       0.05420846       0.03366926       0.38465528      -0.03151085      -0.01008765      -0.00393755       0.08125050      -0.10113483      -0.06528854       0.05533175       0.03258250       0.00494243
O        1.10337755       0.62357015       2.92678428      -0.67578225      -1.53638353       2.96467245      -0.24889536       0.00387729      -0.00039713       0.00228553      -0.00063871      -0.00067268       0.00096940       0.00054946       0.00035684       0.00024354      -0.17277772      -0.03397764      -0.00019418       0.01441003      -0.02985257       0.08737975      -0.00562795       0.03821929       0.02777584      -0.17665501      -0.03358051      -0.00247971       0.01504874      -0.02917989       0.08641035      -0.00617741       0.03786245       0.02753230       0.00387729
O       -0.23532673       2.69131575       1.69819193       0.49824549      -1.40458957       2.19430848      -0.27439239       0.00061938      -0.00194864       0.00450634      -0.00285867       0.00057953      -0.00047029       0.00086353      -0.00069062      -0.00002872      -0.22461038      -0.00784350      -0.01753137      -0.01237127       0.08552654      -0.01509699       0.01568826       0.02004892      -0.00027467      -0.22522976      -0.00589486      -0.02203771      -0.00951260       0.08494701      -0.01462670       0.01482473       0.02073954      -0.00024595       0.00061938
O        4.53037596       4.34539339       3.51413660       0.42185560       0.89656262       4.69392049      -0.25126180       0.00448939      -0.00057844       0.00226487       0.00046182      -0.00074548      -0.00081914      -0.00006807      -0.00048002      -0.00000465      -0.16941741      -0.02304661       0.02911473       0.01362230      -0.08503873      -0.07708579      -0.03416961      -0.06460530       0.00570126      -0.17390680      -0.02246817       0.02684986       0.01316048      -0.08429325      -0.07626665      -0.03410154      -0.06412528       0.00570591       0.00448939
O        1.30363231       4.61869128       5.18663162      -2.36793513      -0.39926637      -0.95393302      -0.30605245       0.00367654       0.00018471       0.00058118       0.00022524       0.00014209       0.00075793      -0.00033599      -0.00022754       0.00017208      -0.25882445       0.01620905       0.01198038       0.01639135       0.02066800       0.02933569      -0.02906780      -0.01940753       0.03006898      -0.26250099       0.01602434       0.01139920       0.01616611       0.02052591       0.02857776      -0.02873181      -0.01917999       0.02989690       0.00367654
O       -0.44602573       2.83151796       6.73741701       0.41568099       0.57093579      -1.21263199      -0.26857824       0.00229698       0.00102073      -0.00122795       0.00041312      -0.00049824      -0.00034142       0.00032006       0.00021770      -0.00058020      -0.20657717       0.01148623       0.02009312      -0.01708381      -0.07281885      -0.02958714       0.03863836       0.00483735      -0.02454709      -0.20887415       0.01046550       0.02132107      -0.01749693      -0.07232061      -0.02924572       0.03831830       0.00461965      -0.02396689       0.00229698
O        3.97724753       1.33148145       4.80049958       0.84754881      -1.79752061      -3.45382112      -0.27582236       0.00382290       0.00152270      -0.00085580      -0.00132324       0.00003704      -0.00051302      -0.00043497       0.00033273      -0.00002883      -0.20992241       0.01391444      -0.04269249      -0.01216814       0.03984538      -0.06007804      -0.02526988       0.05712930       0.01260568      -0.21374531       0.01239174      -0.04183669      -0.01084490       0.03980834      -0.05956502      -0.02483491       0.05679657       0.01263451       0.00382290
Si       3.70192766       1.84167903      14.90441395       0.87279830       0.40039299      -0.12563151       0.56562833       0.00395007       0.00014812       0.00038286       0.00043151       0.00133970      -0.00138106      -0.00244975       0.00172132       0.00106656       0.48067909      -0.04321265      -0.01272544       0.03490272       0.00966344      -0.02075226      -0.06474785      -0.03994303       0.00296672       0.47672902      -0.04336077      -0.01310830       0.03447121       0.00832374      -0.01937120      -0.06229810      -0.04166435       0.00190016       0.00395007
Si       3.83848113       3.53169419      10.77258606       0.34799111      -2.48579208      -1.08918979       0.55917314       0.00295904      -0.00015514       0.00023202       0.00053753      -0.00073854       0.00228718       0.00119593      -0.00077441       0.00012824       0.46036915      -0.04273260      -0.00682815      -0.01888529       0.00863281      -0.00132969       0.07558747      -0.06228629       0.04375800       0.45741011      -0.04257746      -0.00706017      -0.01942282       0.00937135      -0.00361687       0.07439154      -0.06151188       0.04362976       0.00295904
Si       2.45565948       5.34741918       8.37897058       0.56912080      -0.50441202       2.85101158       0.58886147       0.00418625      -0.00043220       0.00075788       0.00030701      -0.00161536      -0.00070699       0.00010409       0.00029528      -0.00009733       0.48907782       0.00072516       0.02686172      -0.00859294      -0.01389002      -0.01772266      -0.01341704       0.02133436       0.03622729       0.48489157       0.00115736       0.02610384      -0.00889995      -0.01227466      -0.01701567      -0.01352113       0.02103908       0.03632462       0.00418625
O        3.89478197       0.94239057      16.33313998       0.64574952       0.94539212      -2.81365224      -0.28845875       0.02414657      -0.00480369       0.00091931       0.00394724      -0.00194666       0.00404296      -0.00181919       0.00018651      -0.00453881      -0.23104816      -0.01234250       0.00980971       0.03954107      -0.03571337       0.02518064       0.00031622       0.00362823      -0.02050043      -0.25519473      -0.00753881       0.00889040       0.03559383      -0.03376671       0.02113768       0.00213541       0.00344172      -0.01596162       0.02414657
O        2.20333099       2.34962524      14.61202484      -2.50157253       1.23240441       0.89167161      -0.29122608       0.01686966      -0.00573463      -0.00639432      -0.00163960       0.00239030       0.00180369       0.00253787       0.00152288      -0.00164062      -0.23061687      -0.00447816      -0.00655531      -0.02158393       0.06195789      -0.02197214       0.03211754      -0.00533919      -0.03136608      -0.24748653       0.00125647      -0.00016099      -0.01994433       0.05956759      -0.02377583       0.02957967      -0.00686207      -0.02972546       0.01686966
O        1.51514583       4.41668702      16.41060723       1.59629498       0.19429597      -0.70859871      -0.32650391       0.11456731      -0.00014598       0.00338103       0.00070793      -0.03190576      -0.02484579      -0.01049852       0.00943083      -0.00562264      -0.19646748      -0.00122471       0.00080456      -0.00475144      -0.06068555      -0.03923080      -0.00920263       0.00425151       0.00520296      -0.31103479      -0.00107873      -0.00257647      -0.00545937      -0.02877979      -0.01438501       0.00129589      -0.00517932       0.01082560       0.11456731
O        3.29844767       4.58115587       9.70823819      -1.85684952       1.39252989      -4.32790388      -0.29680692       0.00482911      -0.00091377      -0.00291536      -0.00123344       0.00018244       0.00162008       0.00020442      -0.00078905      -0.00048941      -0.24997365       0.01344265      -0.01402532      -0.00293491       0.01788642       0.06038638      -0.04032507      -0.05568317       0.01668858      -0.25480276       0.01435642      -0.01110996      -0.00170147       0.01770398       0.05876630      -0.04052949      -0.05489412       0.01717799       0.00482911
O        2.99237840       2.08620355      10.84686559       0.71878502       0.41773513       0.03059157      -0.29068348       0.00289205      -0.00081335      -0.00268700      -0.00017256      -0.00049570      -0.00066090       0.00064339      -0.00021247      -0.00013996      -0.23429980      -0.01256743      -0.00972964       0.00942655      -0.04979027       0.01163622       0.05559443      -0.05595453      -0.01657270      -0.23719185      -0.01175408      -0.00704264       0.00959911      -0.04929457       0.01229712       0.05495104      -0.05574206      -0.01643274       0.00289205
O        1.62526280       0.68699450       9.02453677      -0.32977185       0.87641713       1.92175409      -0.27226588       0.00384410       0.00096365      -0.00170373       0.00011149       0.00048093      -0.00041393       0.00002090       0.00037548      -0.00007066      -0.21708407       0.01618998      -0.02106935      -0.03742530       0.04651080      -0.05741838      -0.01678384       0.01341579      -0.01150098      -0.22092817       0.01522633      -0.01936562      -0.03753679       0.04602987      -0.05700445      -0.01680474       0.01304031      -0.01143032       0.00384410
Si       1.51720641       1.40728409      10.52240532       2.22867063      -0.28238683      -1.26166972       0.55140255       0.00285308       0.00012013       0.00010542       0.00044925       0.00011844      -0.00127233      -0.00027943       0.00005386       0.00008044       0.44263808      -0.05806568       0.01903686       0.04654209      -0.06361443      -0.01110736       0.01330150       0.07489829       0.00782872       0.43978500      -0.05818581       0.01893144       0.04609284      -0.06373287      -0.00983503       0.01358093       0.07484443       0.00774828       0.00285308
Si       0.99377787       3.51454841      15.03680801       7.85745384       1.27691115       3.06226179       0.55469331       0.00567517       0.00320163       0.00447547       0.00295287       0.00063777       0.00484560       0.00345432       0.00346871      -0.00101118       0.45990133      -0.05623839      -0.01701746       0.00704131      -0.01109748       0.03288514       0.03977802       0.05347487      -0.02329934       0.45422616      -0.05944002      -0.02149293       0.00408844      -0.01173525       0.02803954       0.03632370       0.05000616      -0.02228816       0.00567517
Si       4.96698100       5.42366943      12.54712211       2.98904772       1.08960328       4.03149686       0.51234020       0.00383007      -0.00029415      -0.00010149       0.00222362      -0.00093399      -0.00229161       0.00215570       0.00008703      -0.00035596       0.43256653      -0.02146204       0.01308022      -0.04422754      -0.02526516      -0.06163879       0.03053593      -0.02652645      -0.01551038       0.42873646      -0.02116789       0.01318171      -0.04645116      -0.02433117      -0.05934718       0.02838023      -0.02661348      -0.01515442       0.00383007
O        0.75998591       0.46869008      11.51872970       0.70691130      -0.86379209       0.05628030      -0.27745703       0.00208442      -0.00022125      -0.00107759       0.00108504      -0.00023332       0.00026846       0.00004986       0.00059314       0.00042806      -0.21057481      -0.01952679      -0.00471346       0.00270644      -0.03103582       0.07843434      -0.02731245       0.09651943       0.01514474      -0.21265923      -0.01930554      -0.00363587       0.00162140      -0.03080250       0.07816588      -0.02736231       0.09592629       0.01471668       0.00208442
O        0.67835519       2.69316685      10.42703695      -4.82210438       4.58832236      -0.33035959      -0.28497064       0.00410179       0.00044735      -0.00265448       0.00079673       0.00062474      -0.00000929       0.00015934      -0.00002092      -0.00003275      -0.21796026       0.02902232       0.00235327      -0.00172873       0.09562356       0.03777517       0.05961960       0.03685875      -0.01480672      -0.22206205       0.02857497       0.00500775      -0.00252546       0.09499882       0.03778446       0.05946026       0.03687967      -0.01477397       0.00410179
O        3.80371494       4.55518781      11.96890817      -1.57851789      -0.38590974       2.49839383      -0.27501336       0.00798283      -0.00072898      -0.00176513      -0.00320648       0.00022949      -0.00171840      -0.00076845      -0.00076645       0.00006023      -0.20854093      -0.00354856       0.02518079      -0.04035360      -0.02680622      -0.07497498      -0.01347035      -0.01647903      -0.01506322      -0.21652376      -0.00281958       0.02694592      -0.03714712      -0.02703571      -0.07325658      -0.01270190      -0.01571258      -0.01512345       0.00798283
O        1.08410153       4.64290347      13.94638671      -1.37117181       1.33781074      -2.83209065      -0.26467473       0.01494112      -0.00024635      -0.00639689      -0.00140028       0.00066664       0.00537887       0.00281691      -0.00185360      -0.00196783      -0.19183078       0.02790936      -0.01311564       0.02390201       0.02141739       0.08702259      -0.01940643      -0.04053466      -0.00926807      -0.20677190       0.02815571      -0.00671875       0.02530229       0.02075075       0.08164372      -0.02222334      -0.03868106      -0.00730024       0.01494112
O       -0.37486898       3.03886820      15.47846385      -3.25060000      -1.26044875       0.81637578      -0.25529637       0.00490300      -0.00194337      -0.00011507      -0.00378738      -0.00067412      -0.00037147       0.00048575      -0.00037610       0.00001459      -0.17699428       0.03408967       0.02781376      -0.04842702      -0.10521966      -0.05132248       0.01284622       0.00859589      -0.04636059      -0.18189728       0.03603304       0.02792883      -0.04463964      -0.10454554      -0.05095101       0.01236047       0.00897199      -0.04637518       0.00490300
O        4.04299963       1.15958659      13.38334008      -0.09344172       1.22067534       2.05059958      -0.29023781       0.00676567      -0.00166821      -0.00255261      -0.00031832       0.00073245      -0.00063521      -0.00016956       0.00044177       0.00071149      -0.23914047       0.01216998      -0.01210126      -0.00404657       0.08584984      -0.04540025      -0.02822148      -0.00598497      -0.01446186      -0.24590614       0.01383819      -0.00954865      -0.00372825       0.08511739      -0.04476504      -0.02805192      -0.00642674      -0.01517335       0.00676567
Si       3.88196851       6.79284291       5.92754060      -3.53635635       2.64979537       3.98702070       0.47003348       0.00561005       0.00021127      -0.00024265       0.00110824       0.00175622       0.00061687      -0.00086601       0.00070714      -0.00082057       0.38873964       0.02745190      -0.04601208      -0.00932095       0.07886480      -0.13589648       0.00501536       0.06877516      -0.00774100       0.38312959       0.02724063      -0.04576943      -0.01042919       0.07710858      -0.13651335       0.00588137       0.06806802      -0.00692043       0.00561005
Si       3.37001564       9.21872054       2.29133709       1.96734501      -2.57510311       0.08836501       0.54389719       0.00414345       0.00144111       0.00020414      -0.00045685      -0.00063562      -0.00083909       0.00002747      -0.00018877      -0.00005693       0.42992501      -0.01927299       0.00848688      -0.02624249      -0.03043450       0.01432670       0.00408340      -0.01930952       0.01386199       0.42578156      -0.02071410       0.00828274      -0.02578564      -0.02979888       0.01516579       0.00405593      -0.01912075       0.01391892       0.00414345
Si       2.58161963      11.21056686       0.03888614      -0.88761343       0.58631874      -0.32828334       0.52728021       0.00584787       0.00117264       0.00107069      -0.00174282       0.00008291       0.00170916      -0.00130724      -0.00296236       0.00325522       0.43051316      -0.01281616       0.00202519      -0.05900264       0.03280396      -0.04434687      -0.01587365       0.02723720       0.05684255       0.42466529      -0.01398880       0.00095450      -0.05725982       0.03272105      -0.04605603      -0.01456641       0.03019956       0.05358733       0.00584787
O        3.46439028       5.97751485       7.31815956       0.55649858      -0.79726719      -0.84623260      -0.28881091       0.00299660      -0.00110723      -0.00140356      -0.00059774      -0.00018019       0.00059214      -0.00028132       0.00030683       0.00001256      -0.23802317       0.00140125      -0.00486440       0.01601213      -0.05075984       0.06381668      -0.02160556       0.03249502       0.00755924      -0.24101977       0.00250848      -0.00346084       0.01660987      -0.05057965       0.06322454      -0.02132424       0.03218819       0.00754668       0.00299660
O        2.36054171       7.53281827       5.57728853       1.62350951      -0.74223160       0.22471169      -0.30029909       0.00523211      -0.00083899      -0.00072049      -0.00102298       0.00084666      -0.00031113       0.00008195      -0.00010024      -0.00017138      -0.25238771      -0.01149871      -0.00586571      -0.00767979       0.03646438       0.00928191       0.00907913      -0.01463312       0.00659812      -0.25761982      -0.01065972      -0.00514522      -0.00665681       0.03561772       0.00959304       0.00899718      -0.01453288       0.00676950       0.00523211
O        1.95001983       9.18102771       7.77875163       2.31742147       2.32604942       3.16145775      -0.29617320       0.00234845      -0.00024111      -0.00095081      -0.00028663      -0.00028523      -0.00034326      -0.00020115       0.00002565      -0.00052940      -0.25287539       0.01128617       0.03511456       0.00336568      -0.04974743      -0.03272886      -0.01668952      -0.03645801       0.01968777      -0.25522384       0.01152728       0.03606537       0.00365231      -0.04946220      -0.03238560      -0.01648837      -0.03648366       0.02021717       0.00234845
O        3.07368623      10.31997852       1.27102351      -0.76904308       1.27435818      -1.15425347      -0.27313506       0.00495128      -0.00108778       0.00212560       0.00068401       0.00040501       0.00112558      -0.00045116      -0.00044522       0.00066612      -0.19697690       0.02353544      -0.00972660       0.01247596       0.07498397       0.11962430      -0.06315512      -0.01486340       0.04016523      -0.20192818       0.02462322      -0.01185220       0.01179195       0.07457896       0.11849872      -0.06270396      -0.01441818       0.03949911       0.00495128
O        2.14196259       8.21102629       2.62716813       0.79902750       0.91829111      -0.11121201      -0.26046839       0.00555764       0.00021410       0.00296997      -0.00031986      -0.00059992      -0.00007830       0.00057011      -0.00013105      -0.00008237      -0.18317236       0.01328942       0.02770686      -0.00750552      -0.11046600      -0.02914127       0.00954675       0.00726483      -0.00694984      -0.18873000       0.01307532       0.02473689      -0.00718566      -0.10986608      -0.02906297       0.00897664       0.00739588      -0.00686747       0.00555764
O        1.60257903       6.83316945       0.22890866       1.42095127       0.99865969       2.45868141      -0.25403325       0.00980257       0.00618843       0.00398373       0.00122448       0.00369126       0.00097702      -0.00323710       0.00177048      -0.00127907      -0.18658568       0.03830081      -0.03522390      -0.02035932       0.07323561      -0.01700993      -0.01289785       0.01543333      -0.00956893      -0.19638825       0.03211238      -0.03920763      -0.02158380       0.06954435      -0.01798695      -0.00966075       0.01366285      -0.00828986       0.00980257
Si       1.22014566       7.18795324       1.83176799      -2.44657807      -0.27415830      -2.63975471       0.54204527       0.00410066       0.00034502      -0.00267635       0.00209544      -0.00035086       0.00007097       0.00216264      -0.00274372       0.00094949       0.44325791       0.00918978      -0.02230014       0.05072170      -0.04518688      -0.01563087      -0.02916800      -0.02695735      -0.01615622       0.43915725       0.00884476      -0.01962379       0.04862626      -0.04483602      -0.01570184      -0.03133064      -0.02421363      -0.01710571       0.00410066
Si       1.45153892       8.62289355       6.43646839      -0.68040031       0.92725666      -3.60583759       0.53540654       0.00318527      -0.00029151       0.00009994      -0.00011663       0.00024272       0.00005472       0.00009185       0.00046194      -0.00025895       0.44815191      -0.03236479      -0.00434972       0.01971988      -0.00164856      -0.06185655      -0.02393245       0.00598810      -0.00846947       0.44496664      -0.03207328      -0.00444966       0.01983651      -0.00189128      -0.06191127      -0.02402430       0.00552616      -0.00821052       0.00318527
Si       4.95622136      10.96508333       4.25883979       0.29334984      -0.44302471      -0.77512615       0.56012221       0.00554072      -0.00276201       0.00159733       0.00272607      -0.00173011      -0.00053896      -0.00075243       0.00065421       0.00026370       0.46506504      -0.00141850       0.01185161       0.03831588       0.00886925       0.06293870       0.01119069      -0.01444926       0.04355390       0.45952432       0.00134351       0.01025428       0.03558981       0.01059936       0.06347766       0.01194312      -0.01510347       0.04329020       0.00554072
O        1.03187985       5.90010877       2.73190457       0.40967874      -1.75892742       2.42159273      -0.27036759       0.00071161       0.00138640       0.00364527      -0.00046048      -0.00032623       0.00005519      -0.00063972       0.00049088       0.00035496      -0.21081873      -0.02839384      -0.00593142       0.00761492      -0.01411693       0.07213796      -0.01296238       0.03784227       0.02011493      -0.21153034      -0.02978024      -0.00957669       0.00807540      -0.01379070       0.07208277      -0.01232266       0.03735139       0.01975997       0.00071161
O       -0.33248767       7.63770330       1.63467100      -0.17162179       3.00333806       0.33605249      -0.27614901       0.00194977       0.00047141       0.00249112      -0.00143223       0.00054597      -0.00044535       0.00046260       0.00002163       0.00039808      -0.22906067      -0.02015936      -0.00661904      -0.03326996       0.06101448      -0.03929697       0.01703394      -0.00341359      -0.00552581      -0.23101044      -0.02063077      -0.00911016      -0.03183773       0.06046851      -0.03885162       0.01657134      -0.00343522      -0.00592389       0.00194977
O        3.95197926       9.85049171       3.60442619       0.36403890       0.28487175       1.02791746      -0.28569927       0.00592102      -0.00076349       0.00037401      -0.00051784      -0.00128642      -0.00100215      -0.00065299      -0.00002256       0.00026177      -0.21779201      -0.01582355       0.02243033       0.01038882      -0.06678545      -0.07024621      -0.03364808      -0.05063127      -0.01289003      -0.22371303      -0.01506006       0.02205632       0.01090666      -0.06549903      -0.06924406      -0.03299509      -0.05060871      -0.01315180       0.00592102
O        1.32198085       9.96341417       5.39502398      -0.46416410       0.16539480      -1.54636886      -0.30375723       0.00446640       0.00007207      -0.00012859      -0.00004883       0.00004653       0.00076474       0.00000660      -0.00068742       0.00004238      -0.26438533       0.00406061       0.02512185       0.00578134       0.02042993       0.03705409      -0.00371949      -0.02579096       0.00601414      -0.26885173       0.00398854       0.02525044       0.00583017       0.02038340       0.03628935      -0.00372609      -0.02510354       0.00597176       0.00446640
O       -0.05747769       8.09943342       6.64311707      -0.59646609      -0.42287843       0.45038798      -0.28626424       0.00135816      -0.00089845      -0.00160398       0.00139002      -0.00020391      -0.00023564       0.00007205       0.00045946      -0.00039287      -0.23672657       0.01992668       0.00873501      -0.00799473      -0.08828927      -0.01302374       0.01893842      -0.01239897      -0.03562836      -0.23808473       0.02082513       0.01033899      -0.00938475      -0.08808536      -0.01278810       0.01886637      -0.01285843      -0.03523549       0.00135816
Si       3.82460629       7.31838679      14.78080847      -1.61935639       1.31309697      -6.18181662       0.57858579       0.00542066      -0.00219542       0.00020061       0.00018998      -0.00102988      -0.00101216       0.00213149      -0.00070467      -0.00044268       0.47879336      -0.01243280       0.00992284       0.02517644      -0.05452512       0.01544324       0.04937470      -0.00430464       0.02545818       0.47337270      -0.01023738       0.00972223       0.02498646      -0.05349524       0.01645540       0.04724321      -0.00359997       0.02590086       0.00542066
Si       3.49552260       8.76504031      10.76792730       2.78433608      -1.09581379       3.67504686       0.57283062       0.00358815      -0.00078020      -0.00059735      -0.00017390      -0.00096396       0.00122213       0.00007113       0.00026045      -0.00041740       0.47254049      -0.01969391       0.00917647      -0.01128773      -0.02677307       0.01242650       0.03517331       0.01713242       0.00885325       0.46895234      -0.01891371       0.00977382      -0.01111383      -0.02580911       0.01120437       0.03510218       0.01687197       0.00927065       0.00358815
Si       2.78760400      10.54443317       8.50898482      -1.60039634      -2.26437583      -4.07498063       0.57536554       0.00192458       0.00049305       0.00052863      -0.00068149      -0.00034299      -0.00081408       0.00067786       0.00076681      -0.00045834       0.46994082       0.00375341       0.00970757       0.05314781       0.06496489       0.06258778      -0.04498138       0.01419307       0.02012544       0.46801624       0.00326036       0.00917894       0.05382930       0.06530788       0.06340186      -0.04565924       0.01342626       0.02058378       0.00192458
O        3.46963341       5.96773939      15.50545918       0.50097497      -0.97794010       2.35721390      -0.24564345       0.00329644       0.00380096       0.00163218       0.00398918       0.00034833       0.00120876      -0.00062551       0.00048967       0.00120682      -0.17206516      -0.03513105      -0.01966423       0.01911381      -0.02246968       0.06551668       0.00265094       0.05683066       0.04029299      -0.17536160      -0.03893201      -0.02129641       0.01512463      -0.02281801       0.06430792       0.00327645       0.05634099       0.03908617       0.00329644
O        2.38084206       8.09947207      14.41942949       0.33670689       0.11586896       0.87707969      -0.30211819       0.00656013       0.00174202      -0.00123025      -0.00000030       0.00096125      -0.00007684       0.00099724       0.00016096      -0.00015913      -0.26129796      -0.00071132      -0.01145169      -0.01328643       0.05611190      -0.00033877       0.00681221       0.01723410      -0.01769293      -0.26785809      -0.00245334      -0.01022144      -0.01328613       0.05515065      -0.00026193       0.00581497       0.01707314      -0.01753380       0.00656013
O        2.00467678      10.17848852      15.92423149       0.14256869       1.37847399       2.47954691      -0.27757567       0.00924303      -0.00223106       0.00094921      -0.00079917      -0.00106091      -0.00167101      -0.00053095      -0.00217671       0.00140208      -0.20368265       0.00739293      -0.00031908       0.00934194      -0.05175210      -0.09882105      -0.00425106      -0.09388552       0.01818731      -0.21292568       0.00962399      -0.00126829       0.01014111      -0.05069119      -0.09715004      -0.00372011      -0.09170881       0.01678523       0.00924303
O        3.64867753       9.85315179       9.65015011       0.37833241       1.55886223      -1.34818408      -0.25988433       0.00079595       0.00031025      -0.00014294      -0.00242455      -0.00005235       0.00038743      -0.00015376      -0.00086930      -0.00000231      -0.19242975       0.02186279       0.00312586       0.01898874       0.01560520       0.07304692      -0.04921685      -0.04114414       0.00996203      -0.19322570       0.02155254       0.00326880       0.02141329       0.01565755       0.07265949      -0.04906309      -0.04027484       0.00996434       0.00079595
O        2.01756137       8.20190698      11.01364334       1.39327385       1.34041091       0.55551081      -0.26257691       0.00277153       0.00075804      -0.00129403      -0.00017481      -0.00059960      -0.00031742       0.00012977       0.00011013      -0.00021281      -0.19661437       0.02307388       0.01979558      -0.01700795      -0.08484317      -0.03793711       0.03478368      -0.00907946      -0.03754935      -0.19938590       0.02231584       0.02108961      -0.01683314      -0.08424357      -0.03761969       0.03465391      -0.00918959      -0.03733654       0.00277153
O        1.54983147       6.63415375       9.02305790       0.66257960      -2.52591565      -0.08585430      -0.26520253       0.00386210      -0.00013772      -0.00232232      -0.00007808       0.00040148      -0.00013062       0.00022183       0.00029248       0.00011579      -0.20957583       0.01265122      -0.02771039       0.00244930       0.03711878      -0.03662199      -0.00053981       0.02655298       0.00670459      -0.21343793       0.01278894      -0.02538807       0.00252738       0.03671730      -0.03649137      -0.00076164       0.02626050       0.00658880       0.00386210
Si       1.03845808       7.07745585      10.50784039      -3.60007096       1.66923634      -1.37229522       0.57206927       0.00415409       0.00053728       0.00061179      -0.00224802      -0.00030027      -0.00113491      -0.00101747       0.00073119       0.00000499       0.46775456      -0.04442548      -0.02366292       0.00326119      -0.04836471       0.01199673      -0.05864559       0.06398428       0.00520182       0.46360047      -0.04496276      -0.02427471       0.00550921      -0.04806444       0.01313164      -0.05762812       0.06325309       0.00519683       0.00415409
Si       1.25480878       9.24146663      14.93591175      -0.44079070      -3.98130435      -0.29659071       0.53829785       0.00416258       0.00030341       0.00060974       0.00078420      -0.00055169       0.00048133       0.00084429      -0.00036696       0.00025473       0.43941165      -0.02317384       0.01124648       0.01373513      -0.00126589      -0.00243976       0.05147915      -0.04399461      -0.01523971       0.43524907      -0.02347725       0.01063674       0.01295093      -0.00071420      -0.00292109       0.05063486      -0.04362765      -0.01549444       0.00416258
Si       5.00936922      10.78866004      12.80239040      -4.15039959      -0.61096413      -1.31670943       0.54968126       0.00351577       0.00163256      -0.00012765      -0.00095166      -0.00051710       0.00005758      -0.00048295      -0.00019892       0.00014713       0.44552057      -0.02173172      -0.01033798       0.04286384      -0.01907978      -0.00482519      -0.08694354       0.00104083       0.00995993       0.44200480      -0.02336428      -0.01021033       0.04381550      -0.01856268      -0.00488277      -0.08646059       0.00123975       0.00981280       0.00351577
O        0.68721607       6.09270966      11.67587303       0.89195426      -1.19986483       0.81398962      -0.28730203       0.00447072      -0.00032338      -0.00204378       0.00068286      -0.00072618       0.00074392      -0.00041169       0.00046699       0.00036936      -0.22782866      -0.01641179       0.00852199       0.00020520      -0.03829771       0.09820057      -0.02724265       0.04503023       0.01002363      -0.23229938      -0.01608841       0.01056577      -0.00047766      -0.03757153       0.09745665      -0.02683096       0.04456324       0.00965427       0.00447072
O       -0.48233215       7.92540741      10.26478104       3.08494273      -1.82564716      -0.15791094      -0.30215326       0.01322236      -0.00129785      -0.00168604       0.00241939       0.00336268      -0.00150319      -0.00003482      -0.00086608      -0.00205553      -0.24675438      -0.02439995      -0.00464236       0.01449418       0.07725838      -0.01482442       0.01542595       0.00519633      -0.02968677      -0.25997674      -0.02310210      -0.00295632       0.01207479       0.07389570      -0.01332123       0.01546077       0.00606241      -0.02763124       0.01322236
O        4.02027389       9.61341369      12.15340022       0.10060473      -0.59842653      -0.62878758      -0.30783170       0.00333717       0.00069458      -0.00029073      -0.00126341      -0.00047683      -0.00071210      -0.00024138      -0.00004632      -0.00016613      -0.27212629       0.00046025       0.00778306      -0.00897535      -0.04478495      -0.02445049       0.00197173      -0.01230575       0.02077073      -0.27546346      -0.00023433       0.00807379      -0.00771194      -0.04430812      -0.02373839       0.00221311      -0.01225943       0.02093686       0.00333717
O        0.69174431      10.10964125      13.78160275       0.97018234       0.81464686      -0.32784086      -0.28742672       0.00768827      -0.00017111      -0.00060275       0.00032318       0.00157366       0.00102115      -0.00110707      -0.00073992       0.00021014      -0.22505994      -0.00260144      -0.01001523       0.01462353       0.04188715       0.08997377      -0.04518297      -0.07133951       0.00264690      -0.23274821      -0.00243033      -0.00941248       0.01430035       0.04031349       0.08895262      -0.04407590      -0.07059959       0.00243676       0.00768827
O       -0.11571227       8.47364801      15.48460185      -0.18976326      -0.57227996      -1.16140448      -0.30070750       0.00810184       0.00147653       0.00172845      -0.00172126      -0.00109414      -0.00034451       0.00087665       0.00044354      -0.00004543      -0.26288815       0.00642118       0.00658282      -0.00575541      -0.03952604       0.02970105       0.01984054       0.00373432      -0.00576831      -0.27098999       0.00494465       0.00485437      -0.00403415      -0.03843190       0.03004556       0.01896389       0.00329078      -0.00572288       0.00810184
O        4.51372994       6.89635146      13.14251677      -1.55969700      -0.34074644       3.12777143      -0.30113409       0.01486838       0.00356831      -0.00090249      -0.00234826      -0.00104079      -0.00135016      -0.00134436       0.00345806       0.00224759      -0.24975323       0.02468674      -0.00861421      -0.00364003       0.03298005      -0.01293418      -0.00918179       0.01374911       0.02808922      -0.26462161       0.02111843      -0.00771172      -0.00129177       0.03402084      -0.01158402      -0.00783743       0.01029105       0.02584163       0.01486838
Si       8.43469511       1.58285344       6.22335011       0.95685698       0.14032208       0.77680465       0.53429389       0.00327274      -0.00069543       0.00124419       0.00036424      -0.00036481      -0.00177326       0.00107653      -0.00002696      -0.00048310       0.43136078       0.01653874      -0.00970605       0.00208618       0.01958329      -0.02082361       0.00730393      -0.00018299       0.00142031       0.42808804       0.01723417      -0.01095024       0.00172194       0.01994810      -0.01905035       0.00622740      -0.00015603       0.00190341       0.00327274
Si       8.47947136       3.73366481       2.24373930       0.02198156       2.15360258      -2.70546395       0.52558999       0.00427676      -0.00101006       0.00019569      -0.00006573      -0.00124492      -0.00173241      -0.00102731      -0.00012525      -0.00185507       0.42791684      -0.05000868       0.00438167      -0.02760556       0.01467900      -0.03512371       0.01541923       0.01504155      -0.05713979       0.42364008      -0.04899862       0.00418598      -0.02753983       0.01592392      -0.03339130       0.01644654       0.01516680      -0.05528472       0.00427676
Si       7.47895414       5.62138605       0.15103413       0.85356584      -0.66046996       0.99020195       0.54218871       0.00295819      -0.00055848       0.00104735      -0.00067540       0.00204002      -0.00019785       0.00077934       0.00051691      -0.00119605       0.44672421      -0.01723089       0.02014938      -0.00643347       0.01799529       0.02377668       0.07646347      -0.01631194       0.00583988       0.44376602      -0.01667241       0.01910203      -0.00575807       0.01595527       0.02397453       0.07568413      -0.01682885       0.00703593       0.00295819
O        8.33754523       0.62819197       7.50187572       1.43942571      -0.69672237      -0.82637488      -0.28068050       0.00800118       0.00186035      -0.00166785       0.00425997      -0.00041430       0.00125169      -0.00104218       0.00087141       0.00076915      -0.21440705      -0.01734882       0.00342001       0.03236648      -0.00388970       0.08205309      -0.02356522       0.06723598      -0.01392058      -0.22240823      -0.01920917       0.00508786       0.02810651      -0.00347540       0.08080140      -0.02252304       0.06636457      -0.01468973       0.00800118
O        6.97904476       2.11826474       5.82279913      -1.45124998       2.26178833      -0.24074728      -0.27074687       0.00195421       0.00238509      -0.00247111       0.00085642       0.00027501      -0.00021316       0.00046571       0.00006694      -0.00005155      -0.20899573      -0.01987650      -0.00973524      -0.02713976       0.06226986      -0.02973303       0.02856572      -0.01658417      -0.01572951      -0.21094994      -0.02226159      -0.00726413      -0.02799618       0.06199485      -0.02951987       0.02810001      -0.01665111      -0.01567796       0.00195421
O        6.60958175       4.10811881       7.73563856       0.03038896      -0.46632133      -0.76504867      -0.29945487       0.00233140       0.00006610      -0.00209090       0.00012115      -0.00027347      -0.00039601      -0.00072739      -0.00034833       0.00001655      -0.26677638      -0.00719300      -0.00080704      -0.01062523      -0.04526684      -0.01449604      -0.01780056      -0.03456060       0.01091910      -0.26910778      -0.00725910       0.00128386      -0.01074638      -0.04499337      -0.01410003      -0.01707317      -0.03421227       0.01090255       0.00233140
O        8.69445281       4.97229152       1.10021791      -2.67177292      -0.54356978       0.33460324      -0.28427925       0.00135055       0.00140755       0.00420806      -0.00291532      -0.00062671       0.00102674      -0.00006291      -0.00079315       0.00035589      -0.25439347       0.01572905       0.01117139       0.02042469      -0.00168336       0.03645410       0.00409169      -0.02292646       0.00621349      -0.25574402       0.01432150       0.00696333       0.02334001      -0.00105665       0.03542736       0.00415460      -0.02213331       0.00585760       0.00135055
O        6.88027728       3.35042360       2.30678105       2.14710993      -1.34071850      -0.23600817      -0.26081898       0.00367654      -0.00010766       0.00240790       0.00005683      -0.00046321      -0.00062199       0.00034278       0.00010597      -0.00048350      -0.20174852       0.03190773       0.01464175      -0.01122872      -0.06507451      -0.02705988       0.02722451      -0.00479602      -0.04586925      -0.20542506       0.03201539       0.01223385      -0.01128555      -0.06461130      -0.02643789       0.02688173      -0.00490199      -0.04538575       0.00367654
O        6.48215401       1.12937861       0.64370719      -0.68127084       1.76875751       0.51510180      -0.24090800       0.00044505      -0.00118509       0.00227591       0.00103229       0.00034794      -0.00023527       0.00000764       0.00056634       0.00030095      -0.15924683       0.02188878      -0.01687441      -0.01313799       0.09129526      -0.08783205      -0.01116238       0.04232878       0.00463869      -0.15969188       0.02307387      -0.01915032      -0.01417028       0.09094732      -0.08759678      -0.01117002       0.04176244       0.00433774       0.00044505
Si       5.99286812       2.04847460       1.85829996      -0.09998627      -0.31440726       2.91326655       0.55978711       0.00282622      -0.00022593       0.00117941      -0.00016775      -0.00101534       0.00061922      -0.00038845      -0.00011445       0.00057615       0.45181238      -0.02542774      -0.03163029       0.04357918       0.01704592      -0.03644105       0.02369461       0.03650018       0.05100851       0.44898616      -0.02520181      -0.03280970       0.04374693       0.01806126      -0.03706027       0.02408306       0.03661463       0.05043236       0.00282622
Si       6.08356124       3.48455669       6.22817318       3.30884187      -0.48783023       3.55635422       0.56617595       0.00328272       0.00038969      -0.00037955       0.00088262      -0.00020731       0.00099886       0.00040729       0.00015435       0.00082887       0.47039699      -0.01852454      -0.05147913       0.00604139      -0.02450173       0.02199099       0.08638096       0.02908551       0.04605180       0.46711427      -0.01891423      -0.05109958       0.00515877      -0.02429442       0.02099213       0.08597367       0.02893116       0.04522293       0.00328272
Si      10.05319722       5.42013644       4.08368561       2.18911131      -3.40573849      -0.47818916       0.55157352       0.00367335       0.00095828      -0.00048730       0.00044074       0.00096015      -0.00059067      -0.00020754      -0.00028937      -0.00003866       0.45542062       0.01567327      -0.02218179       0.05229254       0.01856370       0.00122151      -0.03049549       0.03344519      -0.02528938       0.45174727       0.01471499      -0.02169449       0.05185180       0.01760355       0.00181218      -0.03028795       0.03373456      -0.02525072       0.00367335
O        5.79312316       0.99291091       3.13034660       0.78312783      -0.54041608      -0.26350849      -0.30389561       0.00413267       0.00033087       0.00026267       0.00124301      -0.00058970       0.00058580      -0.00072213       0.00031346       0.00017817      -0.25611454      -0.00628380      -0.01183074       0.00449772      -0.02226352       0.06411404      -0.04238854       0.03632648       0.01364664      -0.26024721      -0.00661467      -0.01209341       0.00325471      -0.02167382       0.06352824      -0.04166641       0.03601302       0.01346847       0.00413267
O        4.63269239       2.76463163       1.66221099      -2.90265199       0.86527610      -0.88402489      -0.29403614      -0.00048773      -0.00062902       0.00396624       0.00208062       0.00039672       0.00014988       0.00004906      -0.00090473      -0.00073868      -0.25069961      -0.00676808      -0.01167733      -0.02767349       0.06580606      -0.02817076       0.02004811      -0.00861814      -0.03097414      -0.25021188      -0.00613906      -0.01564357      -0.02975411       0.06540934      -0.02832064       0.01999905      -0.00771341      -0.03023546      -0.00048773
O        8.85331065       4.39682655       3.63375979       0.96989946      -0.55297311       1.09872117      -0.29163799       0.00480206      -0.00033606       0.00195426      -0.00084221      -0.00071395      -0.00091149      -0.00015736      -0.00005011      -0.00054973      -0.23177698      -0.01329482       0.02180634      -0.00675855      -0.05884958      -0.07031509      -0.03036324      -0.01125921      -0.02404943      -0.23657904      -0.01295876       0.01985208      -0.00591634      -0.05813563      -0.06940360      -0.03020588      -0.01120910      -0.02349970       0.00480206
O        6.34113292       4.85664719       5.41348543      -2.41386523       0.56416647      -2.16226218      -0.25647220       0.00322565      -0.00007007      -0.00039446       0.00063913       0.00004771       0.00041353      -0.00010954      -0.00010046       0.00007384      -0.19297600       0.03824999       0.01251542       0.04086225      -0.01069356       0.06235327      -0.01776654      -0.01426612       0.00718191      -0.19620165       0.03832006       0.01290988       0.04022312      -0.01074127       0.06193974      -0.01765700      -0.01416566       0.00710807       0.00322565
O        4.61926453       2.97207397       6.47978349      -1.73489343       0.12230068       0.51790488      -0.27205559       0.00200546       0.00172459      -0.00098200      -0.00106784      -0.00012873      -0.00002963       0.00040978      -0.00004144       0.00006327      -0.20428525       0.01061893       0.02186913      -0.03558406      -0.08219977      -0.04985378       0.04740759      -0.00780085      -0.03825088      -0.20629071       0.00889434       0.02285113      -0.03451622      -0.08207104      -0.04982415       0.04699781      -0.00775941      -0.03831415       0.00200546
O        9.03771783       0.68964529       5.07085861       2.12668231      -0.69217506      -2.92452901      -0.30256258       0.00350993       0.00103984      -0.00128986       0.00073507       0.00035914      -0.00094060       0.00024566       0.00066799      -0.00022485      -0.25066537      -0.00894714      -0.01573719       0.00885106       0.06532571      -0.07849040      -0.01145858       0.03836927      -0.01738343      -0.25417530      -0.00998698      -0.01444733       0.00811599       0.06496657      -0.07754980      -0.01170424       0.03770128      -0.01715858       0.00350993
Si       8.51395431       1.85570387      14.91276057      -0.49580808       0.31624452      -1.60326416       0.55992897       0.00479580       0.00238264       0.00020998      -0.00079800       0.00089763       0.00134633      -0.00054933       0.00049076       0.00054882       0.45273916      -0.03306887      -0.02209050      -0.01472081       0.01509865       0.06323771       0.00873996       0.02363416      -0.00260847       0.44794336      -0.03545151      -0.02230048      -0.01392281       0.01420102       0.06189138       0.00928929       0.02314340      -0.00315729       0.00479580
Si       9.01335970       3.44698946      10.71094929      -1.24162340      -3.36636872       1.78032966       0.59201113       0.00361971      -0.00048777       0.00057163      -0.00025608       0.00185095       0.00132266       0.00022244       0.00000394      -0.00051631       0.49266913      -0.02654341      -0.02615556       0.01970800       0.04956889       0.03670135      -0.01877915       0.02295917      -0.00085717       0.48904942      -0.02605564      -0.02672719       0.01996408       0.04771794       0.03537869      -0.01900159       0.02295523      -0.00034086       0.00361971
Si       7.55195256       5.16595135       8.51397694      -0.74320267      -0.94408018       1.24186066       0.56255680       0.00287384       0.00113904       0.00032894      -0.00043011      -0.00206363       0.00082329      -0.00023654      -0.00026144       0.00033925       0.46199838      -0.03206252       0.03589514      -0.02698389      -0.00207929      -0.03821871       0.04130567      -0.04602387       0.02707331       0.45912454      -0.03320156       0.03556620      -0.02655378      -0.00001566      -0.03904200       0.04154221      -0.04576243       0.02673406       0.00287384
O        8.55838631       0.61607735      15.94675123      -1.49388104       0.33439022       0.50102053      -0.28007074       0.00300930      -0.00159156       0.00120016      -0.00087668      -0.00040742       0.00041760      -0.00018585       0.00068549      -0.00027136      -0.22320308      -0.02548864      -0.00972566       0.01774064      -0.00595687       0.07788976       0.00000078       0.01874369       0.02300379      -0.22621238      -0.02389708      -0.01092582       0.01861732      -0.00554945       0.07747216       0.00018663       0.01805820       0.02327515       0.00300930
O        7.03000430       2.50290879      14.68011229       0.60410565      -0.47324062       0.38232167      -0.29126700       0.00653384      -0.00307100       0.00088773       0.00057787       0.00107117      -0.00078529       0.00107022      -0.00032847      -0.00063240      -0.23431222      -0.01076841      -0.01677589      -0.01807030       0.06918148      -0.00805950       0.03236550       0.00764255      -0.01645198      -0.24084606      -0.00769741      -0.01766362      -0.01864817       0.06811031      -0.00727421       0.03129528       0.00797102      -0.01581958       0.00653384
O        6.64398013       4.33416535      16.55459172       0.01952515       0.63824213      -1.12011364      -0.27388254       0.00643748      -0.00033147       0.00386880       0.00101642      -0.00078501      -0.00046611       0.00003202      -0.00033149       0.00016990      -0.20919502      -0.01382435       0.01701454       0.00120869      -0.04587524      -0.07285305      -0.01851627      -0.03566710       0.00162217      -0.21563250      -0.01349288       0.01314574       0.00019227      -0.04509023      -0.07238694      -0.01854829      -0.03533561       0.00145227       0.00643748
O        8.63808682       4.40039114       9.49757587      -0.84246079       0.40464614      -0.86757885      -0.26763595       0.00376431      -0.00052908      -0.00273645       0.00210834       0.00029052       0.00046581      -0.00005066      -0.00020922      -0.00014798      -0.20321304       0.01486278       0.00015462       0.00212026       0.05188106       0.07460277      -0.05051680      -0.04073226       0.00391657      -0.20697735       0.01539186       0.00289107       0.00001192       0.05159054       0.07413696      -0.05046614      -0.04052304       0.00406455       0.00376431
O        7.78239777       2.23511160      11.15674029       1.78309197       0.86774763      -1.50529430      -0.31248021       0.00995511      -0.00025445      -0.00039765       0.00127113      -0.00139843       0.00130636       0.00236915      -0.00138824      -0.00055034      -0.26950389      -0.00308176       0.00006992       0.01534526      -0.04426788      -0.00334125       0.00621165      -0.04310372      -0.02469379      -0.27945900      -0.00282731       0.00046757       0.01407413      -0.04286945      -0.00464761       0.00384250      -0.04171548      -0.02414345       0.00995511
O        6.60201194       1.52108384       8.91534145      -1.85461862      -0.11151801       3.64757010      -0.26949270       0.01484850       0.00431465      -0.00129793      -0.00129610       0.00151973      -0.00024186      -0.00215357       0.00176895       0.00289110      -0.20631908       0.04454475      -0.03205394      -0.00786552       0.04654999      -0.02356593      -0.01793850       0.01042896       0.05105251      -0.22116758       0.04023010      -0.03075601      -0.00656942       0.04503026      -0.02332407      -0.01578493       0.00866001       0.04816141       0.01484850
Si       6.32424694       1.72688405      10.59899765       1.54441323       2.31996756      -0.51251587       0.55270084       0.00322167       0.00055660      -0.00158650      -0.00084841       0.00032779      -0.00040200       0.00017366       0.00065279       0.00119353       0.46470526      -0.06785879      -0.01157973      -0.05558153       0.00401749       0.05555827      -0.01811773       0.03900460       0.02413959       0.46148359      -0.06841539      -0.00999323      -0.05473312       0.00368970       0.05596027      -0.01829139       0.03835181       0.02294606       0.00322167
Si       6.05390408       3.76065352      15.13755261       0.08517409       0.38765809      -2.59538433       0.54021379       0.00621232       0.00169449      -0.00325232      -0.00319426       0.00044474      -0.00389563      -0.00028461      -0.00017014      -0.00178136       0.44907449       0.04708640       0.01092100       0.02084185       0.00622462       0.00248027      -0.05109184      -0.03960393      -0.02514042       0.44286217       0.04539191       0.01417332       0.02403611       0.00577988       0.00637590      -0.05080723      -0.03943379      -0.02335906       0.00621232
Si       9.79213010       5.33652185      12.96158382       1.74428232      -0.64376466      -2.59784480       0.58516206       0.00383226      -0.00253611       0.00154641       0.00315209      -0.00215009      -0.00049454      -0.00049985       0.00110365      -0.00010731       0.46703726      -0.02249573       0.04298359      -0.00686421       0.05854644      -0.04617481      -0.03014110      -0.05530649       0.04450132       0.46320500      -0.01995962       0.04143718      -0.01001630       0.06069653      -0.04568027      -0.02964125      -0.05641014       0.04460863       0.00383226
O        5.83952871       0.47809471      11.55321765       1.50991805       1.40855132      -1.83141851      -0.26167077       0.00232273       0.00023821       0.00053394      -0.00083700      -0.00050928       0.00017719      -0.00025533       0.00027198       0.00020225      -0.19466671      -0.00566223      -0.00730437       0.01437995      -0.04299059       0.06925555       0.00166697       0.07081584       0.00085087      -0.19698944      -0.00590044      -0.00783831       0.01521695      -0.04248131       0.06907836       0.00192230       0.07054386       0.00064862       0.00232273
O        5.44773471       3.11568453      10.69098986      -1.63325767      -1.19311478      -0.45875059      -0.27343414       0.00402909      -0.00100174      -0.00283070      -0.00105257       0.00127891       0.00067046       0.00041891       0.00091411      -0.00041512      -0.21533404       0.02668201       0.00800557       0.01345486       0.04922452      -0.02248120       0.06719233       0.01025446      -0.01330223      -0.21936313       0.02768375       0.01083627       0.01450743       0.04794561      -0.02315166       0.06677342       0.00934035      -0.01288711       0.00402909
O        8.92740289       4.26223579      12.10150733       0.46610018       0.03561881       1.04008627      -0.28005375       0.00323109      -0.00037004      -0.00228356       0.00101314      -0.00036284      -0.00060026      -0.00077418       0.00027823       0.00077015      -0.23564332       0.00518776       0.01960539      -0.01628335      -0.05087608      -0.05085498       0.00269298      -0.01353264       0.01672894      -0.23887441       0.00555780       0.02188895      -0.01729649      -0.05051324      -0.05025472       0.00346716      -0.01381087       0.01595879       0.00323109
O        5.97223322       4.70597080      13.73126781      -0.95097492      -0.67291575       2.07644350      -0.31235958       0.04482965       0.00087007       0.00111377       0.00595543       0.00281039       0.00574499      -0.00520759      -0.00886279       0.00943547      -0.23440596       0.00471824       0.00059184       0.00742283       0.03305265       0.07761904      -0.02678983       0.00732365       0.00476889      -0.27923561       0.00384817      -0.00052193       0.00146740       0.03024226       0.07187405      -0.02158224       0.01618644      -0.00466658       0.04482965
O        4.57353737       3.18035793      15.38790429      -0.37150313      -1.00742632      -0.61390548      -0.28700529       0.02154153      -0.00242394       0.00112354       0.00256930      -0.00365424      -0.00396760       0.00469512       0.00218229      -0.00137717      -0.21830757       0.01119192       0.00945589      -0.02390892      -0.06055594       0.00345515       0.04835637       0.00229141      -0.00289538      -0.23984910       0.01361586       0.00833235      -0.02647822      -0.05690170       0.00742275       0.04366125       0.00010912      -0.00151821       0.02154153
O        9.28577819       1.55861832      13.40311494      -2.23146695      -0.15766313       2.44858847      -0.25669241       0.00288523      -0.00111393      -0.00068146      -0.00056697       0.00066660      -0.00022604      -0.00031534       0.00045995       0.00087531      -0.19671126       0.04061971      -0.00739608       0.01990141       0.06482570      -0.03173421      -0.03111925       0.00635220       0.02748774      -0.19959649       0.04173364      -0.00671462       0.02046838       0.06415910      -0.03150817      -0.03080391       0.00589225       0.02661243       0.00288523
Si       8.64569062       6.98134816       6.33555843      -0.11298774       2.60676017      -2.27368089       0.61180664       0.00381535      -0.00097133      -0.00078765      -0.00099742      -0.00031438      -0.00102792      -0.00129110       0.00103839       0.00045645       0.49937406      -0.04082280      -0.01377903      -0.04895592      -0.02171296       0.06394802      -0.03813693       0.03763441      -0.00509784       0.49555871      -0.03985147      -0.01299138      -0.04795850      -0.02139858       0.06497594      -0.03684583       0.03659602      -0.00555429       0.00381535
Si       8.69665436       9.03542232       2.11990027      -0.03744486      -3.93326213       0.56569959       0.55764658       0.00313059      -0.00031457      -0.00000348       0.00005308      -0.00071336      -0.00027232      -0.00030582      -0.00021607      -0.00050928       0.44596253       0.01493406      -0.02400628       0.02375069       0.01681221       0.03601377       0.02441955      -0.04294109       0.04195096       0.44283194       0.01524863      -0.02400280       0.02369761       0.01752557       0.03628609       0.02472537      -0.04272502       0.04246024       0.00313059
Si       7.48917183      10.87570951       0.15525943       4.28408611      -0.62746396      -3.01277382       0.57674011       0.00318669       0.00013211       0.00003069       0.00006855       0.00101894      -0.00012808       0.00051912      -0.00118858      -0.00024413       0.45910923       0.02545579       0.04035660      -0.01125690       0.06383735      -0.04725235       0.03956834      -0.00746452      -0.01142399       0.45592254       0.02532368       0.04032591      -0.01132545       0.06281841      -0.04712427       0.03904922      -0.00627594      -0.01117986       0.00318669
O        8.52090744       6.01926917       7.58892125       1.18914655       0.14569369      -2.31949465      -0.26182514       0.00367889      -0.00190397      -0.00211106       0.00160217      -0.00066270       0.00088371      -0.00019413      -0.00029089       0.00056739      -0.19823213      -0.01045106       0.00455925       0.02698135      -0.04172838       0.08961959      -0.02434453       0.02804839       0.00821312      -0.20191102      -0.00854709       0.00667031       0.02537918      -0.04106568       0.08873588      -0.02415040       0.02833928       0.00764573       0.00367889
O        7.16443004       7.86750507       5.99766762       3.76368337      -2.15549668       0.29129522      -0.27208546       0.00760515      -0.00310015      -0.00441004       0.00069425       0.00096873       0.00007726       0.00070449       0.00019435      -0.00050469      -0.20431181      -0.01957461      -0.01013786       0.01647707       0.08161032       0.00004559       0.04339618       0.03653470      -0.02758309      -0.21191696      -0.01647446      -0.00572782       0.01578282       0.08064159      -0.00003167       0.04269169       0.03634035      -0.02707840       0.00760515
O        5.98521821       9.98288203       7.85746400       2.46067401      -1.60440793      -1.65329162      -0.29380996       0.06707794      -0.00233799      -0.00228695       0.00016406      -0.00894621      -0.02122952       0.00123588       0.00352994      -0.00842105      -0.20007290       0.00159255       0.01120509      -0.01485265      -0.02486683      -0.03398783      -0.01144090      -0.02367984      -0.02059595      -0.26715084       0.00393054       0.01349204      -0.01501671      -0.01592062      -0.01275831      -0.01267678      -0.02720978      -0.01217490       0.06707794
O        8.61210249      10.26506760       1.14321808      -0.02749223       1.28968086      -0.08949206      -0.26523201       0.00150597      -0.00004420       0.00159622      -0.00090072      -0.00000786       0.00050833       0.00010901      -0.00035674       0.00015428      -0.19813725       0.01945071       0.00677731       0.03023669      -0.00940878       0.09712664      -0.02146676      -0.05769073       0.02383117      -0.19964322       0.01949491       0.00518109       0.03113741      -0.00940092       0.09661831      -0.02157577      -0.05733399       0.02367689       0.00150597
O        7.22212403       8.46326784       2.41445977      -1.68143284       0.32115292       0.01980549      -0.29177962       0.00302726       0.00009379       0.00098063       0.00011056      -0.00054587       0.00018166       0.00031116      -0.00011193      -0.00039537      -0.23819271       0.00701335       0.00566915      -0.01057110      -0.07821325      -0.00397226       0.02671577      -0.00325644      -0.04592434      -0.24121997       0.00691956       0.00468852      -0.01068166      -0.07766738      -0.00415392       0.02640461      -0.00314451      -0.04552897       0.00302726
O        6.33994357       6.63488539       0.70677240      -0.33438305       0.11120526       0.62384412      -0.29767745       0.00211197       0.00110908       0.00210724       0.00089233       0.00021673      -0.00061097      -0.00062949       0.00016499       0.00011029      -0.25182143       0.00611379      -0.01095026      -0.00219218       0.03781722      -0.04676137       0.00219321       0.05146640       0.00620693      -0.25393340       0.00500471      -0.01305750      -0.00308451       0.03760049      -0.04615040       0.00282270       0.05130141       0.00609664       0.00211197
Si       5.91763689       7.55029553       1.99926857       2.69050500      -2.61526477       0.53399641       0.53420607       0.00300572       0.00015399      -0.00048487       0.00008481      -0.00083371       0.00054590       0.00021665      -0.00048390       0.00001049       0.44259778       0.04163320       0.02572487      -0.01363492       0.01621884       0.02776108       0.04581093      -0.04012401      -0.02582585       0.43959206       0.04147921       0.02620974      -0.01371973       0.01705255       0.02721518       0.04559428      -0.03964011      -0.02583634       0.00300572
Si       6.09194350       8.87509006       6.50953814      -4.18485975       4.36122180       1.40794309       0.56745380       0.00706537       0.00500487       0.00575419       0.00243535       0.00223055       0.00340513       0.00466115       0.00357500      -0.00031881       0.48587623       0.01797754       0.03284220       0.07218664       0.07085406      -0.05682322       0.05467825       0.07753740       0.06279133       0.47881086       0.01297267       0.02708801       0.06975129       0.06862351      -0.06022835       0.05001710       0.07396240       0.06311014       0.00706537
Si      10.20277844      10.57434709       4.16741755       0.51641099       2.21902677       4.60465944       0.57881727       0.00431089       0.00149686      -0.00041686       0.00074348       0.00038792      -0.00039633      -0.00056109      -0.00014705      -0.00035284       0.47540019       0.04821378      -0.00992964       0.04506290      -0.01572538       0.02762615      -0.05690440      -0.01205179       0.01316068       0.47108930       0.04671692      -0.00951278       0.04431942      -0.01611330       0.02802248      -0.05634331      -0.01190474       0.01351352       0.00431089
O        5.83136917       6.36279397       3.17033615      -1.52715252       0.81939141       2.21625620      -0.30346775       0.00256939       0.00015739       0.00101689       0.00092401      -0.00021771       0.00039484      -0.00015080       0.00015236       0.00025616      -0.25949846      -0.00343881      -0.00317632       0.00175796      -0.05640436       0.06477210      -0.03186498      -0.00619793       0.03192179      -0.26206785      -0.00359620      -0.00419321       0.00083395      -0.05618665       0.06437726      -0.03171418      -0.00635029       0.03166563       0.00256939
O        4.59311685       8.29753627       1.58192928      -1.64507909       0.88944687       0.72931457      -0.28266712       0.00110949       0.00024181       0.00155505       0.00106874       0.00039514      -0.00003654       0.00012410      -0.00011171      -0.00019663      -0.22676366       0.00777086      -0.01742862      -0.01849093       0.09028334       0.00008799       0.01334014       0.02238446      -0.03226866      -0.22787315       0.00752905      -0.01898367      -0.01955967       0.08988820       0.00012453       0.01321604       0.02249617      -0.03207203       0.00110949
O        9.37625500       9.44477491       3.51958412      -1.16751275      -1.47597890      -1.12440953      -0.26597112       0.00286505      -0.00057231       0.00065695      -0.00033279      -0.00036562      -0.00028536      -0.00028620      -0.00016722      -0.00005809      -0.20092771      -0.03426955       0.02273802      -0.02056048      -0.06535241      -0.06296513      -0.01983108      -0.05261085       0.00876974      -0.20379276      -0.03369724       0.02208107      -0.02022769      -0.06498679      -0.06267977      -0.01954488      -0.05244363       0.00882783       0.00286505
O        5.75045237      10.10717059       5.36492262       0.85610942      -0.78513556      -0.04823017      -0.29860959       0.02055382      -0.00000034      -0.00523527       0.00066442       0.00082027       0.00662705       0.00191460      -0.00198695      -0.00132630      -0.23869723      -0.00831254       0.00714782       0.01136388       0.02471413       0.06207504      -0.03466005      -0.03477879       0.01428894      -0.25925105      -0.00831220       0.01238309       0.01069946       0.02389386       0.05544799      -0.03657465      -0.03279184       0.01561524       0.02055382
O        4.71957118       7.96569519       6.75007639       1.05861594       0.13852072      -1.72618160      -0.27665220       0.00392477      -0.00273988      -0.00248880      -0.00155419      -0.00109686      -0.00079385       0.00091761       0.00001931      -0.00009813      -0.22567552       0.01627452       0.01318632      -0.01368500      -0.07555871      -0.00754972       0.03220500      -0.00089477      -0.01020336      -0.22960029       0.01901440       0.01567512      -0.01213081      -0.07446185      -0.00675587       0.03128739      -0.00091408      -0.01010523       0.00392477
O        9.21389527       6.45568209       4.84108621      -2.40048418       2.67785311       3.22297574      -0.27351563       0.00356033       0.00002332      -0.00014329       0.00010466       0.00035819      -0.00070899      -0.00020238       0.00035696       0.00013974      -0.21381574       0.02794789      -0.00716705      -0.01078389       0.04126103      -0.09233791      -0.00361797       0.03226097       0.00913126      -0.21737607       0.02792457      -0.00702376      -0.01088855       0.04090284      -0.09162892      -0.00341559       0.03190401       0.00899152       0.00356033
Si       8.50258620       7.45340858      14.87475832       2.84074672       0.60518279       0.99705907       0.56901423       0.00202898       0.00146660      -0.00012163       0.00030097       0.00015376       0.00079639       0.00074158      -0.00098360      -0.00036392       0.45659111       0.01929572      -0.04366259       0.01232939       0.02982780      -0.01968831       0.00229712      -0.02530217      -0.01254807       0.45456213       0.01782912      -0.04354096       0.01202842       0.02967404      -0.02048470       0.00155554      -0.02431857      -0.01218415       0.00202898
Si       8.31148161       8.92240113      10.90964355       0.58383931       2.51280390      -1.92007025       0.52188645       0.00464505       0.00252183      -0.00192543      -0.00074983       0.00065211      -0.00283751      -0.00003182      -0.00011735      -0.00082054       0.42796120       0.03016368      -0.00126016       0.03253739       0.02844944      -0.04028775      -0.01943545       0.02282243      -0.00715718       0.42331615       0.02764185       0.00066527       0.03328722       0.02779733      -0.03745024      -0.01940363       0.02293978      -0.00633664       0.00464505
Si       7.23831791      10.93030511       8.49469707      -1.52693455      -3.78121407       0.65915402       0.51231573       0.00579156      -0.00398709       0.00008387      -0.00143125       0.00052209       0.00143991       0.00061580       0.00442690       0.00024802       0.42691638      -0.02281298       0.01746199       0.01727866      -0.01048694       0.05171157       0.04147071       0.02028170       0.04281489       0.42112482      -0.01882589       0.01737812       0.01870991      -0.01100903       0.05027166       0.04085491       0.01585480       0.04256687       0.00579156
O        8.26676182       6.58322432      16.17858785      -0.06687658      -0.95872968      -0.48193076      -0.28048261       0.00139408       0.00282305       0.00210937      -0.00182051       0.00017981       0.00002469       0.00019941       0.00008723      -0.00029014      -0.22369502      -0.00613361      -0.00232273       0.00459840      -0.04655453       0.09696427      -0.04446292       0.04046164       0.00622631      -0.22508910      -0.00895666      -0.00443210       0.00641891      -0.04673434       0.09693958      -0.04466233       0.04037441       0.00651645       0.00139408
O        7.17598066       8.20385851      14.43563001      -0.00382087       0.19027719      -0.82982271      -0.27169588       0.00156120       0.00151994       0.00154006       0.00040069       0.00054855      -0.00034371       0.00012756       0.00011672      -0.00003493      -0.21545094      -0.01099448      -0.01613607      -0.01246462       0.08644724      -0.01856175      -0.00434368       0.00043696      -0.04134467      -0.21701214      -0.01251442      -0.01767613      -0.01286531       0.08589869      -0.01821804      -0.00447124       0.00032024      -0.04130974       0.00156120
O        6.76052224       9.67354712      16.47512802      -0.99817907      -0.62048670       0.66095351      -0.26633610       0.00305663      -0.00080990       0.00172997       0.00040228      -0.00030555      -0.00018843       0.00004913      -0.00047425       0.00026643      -0.19148108      -0.03887701       0.02490634       0.00321107      -0.07405130      -0.07073541      -0.02279259      -0.05066452       0.00956261      -0.19453771      -0.03806711       0.02317637       0.00280879      -0.07374575      -0.07054698      -0.02284172      -0.05019027       0.00929618       0.00305663
O        7.82199490       9.88204943       9.62801990       0.36019539       1.10102297       0.38152015      -0.30104717       0.04085967       0.00251687       0.00115664       0.00567824       0.01140247       0.00658313      -0.00745424       0.00040613       0.00567045      -0.21584275      -0.00248074      -0.00006816       0.01393749       0.05755162       0.08602252      -0.03583041      -0.03344215       0.00641881      -0.25670242      -0.00499761      -0.00122480       0.00825925       0.04614915       0.07943939      -0.02837617      -0.03384828       0.00074836       0.04085967
O        7.02963307       8.19231254      11.43157318      -3.39026521      -2.61828908      -0.97176376      -0.26591349       0.01285338       0.00011301       0.00193500      -0.00028393      -0.00291104      -0.00200185      -0.00012070       0.00112600      -0.00109459      -0.20101859       0.00164197       0.03431845      -0.02198237      -0.08399139      -0.00671617      -0.00074739       0.01019041      -0.00841885      -0.21387197       0.00152896       0.03238345      -0.02169844      -0.08108035      -0.00471432      -0.00062669       0.00906441      -0.00732426       0.01285338
O        6.74681570       6.41229119       9.17818213      -0.79371263       0.90513008       1.08233628      -0.28557597       0.00996402      -0.00101919      -0.00393079      -0.00004473       0.00212830      -0.00192872       0.00010671       0.00019099       0.00001648      -0.22411370       0.01972544      -0.01147369      -0.00852385       0.04415838      -0.04666225      -0.02216325       0.05675284      -0.01413658      -0.23407772       0.02074463      -0.00754290      -0.00847912       0.04203008      -0.04473353      -0.02226996       0.05656185      -0.01415306       0.00996402
Si       6.13215628       7.05931852      10.58381416      -0.69530054      -2.16593022       0.88954650       0.58267239       0.00334712      -0.00302802       0.00302286       0.00022059       0.00159960      -0.00133307      -0.00047044       0.00077855      -0.00182408       0.49097453       0.06561399      -0.03193821       0.01480182       0.00418190      -0.08162806       0.02251053      -0.01677864      -0.00992921       0.48762741       0.06864201      -0.03496107       0.01458123       0.00258230      -0.08029499       0.02298097      -0.01755719      -0.00810513       0.00334712
Si       6.10555085       9.17676509      15.12098557       1.36267274       0.24770141      -0.99441564       0.56427151       0.00270260      -0.00061147      -0.00037165      -0.00018412      -0.00011442      -0.00085547      -0.00031015      -0.00061208       0.00024040       0.43938118       0.01907349      -0.00234876      -0.00166913       0.00832763       0.01016558       0.01085394      -0.02354520      -0.00814833       0.43667858       0.01968496      -0.00197711      -0.00148501       0.00844205       0.01102105       0.01116409      -0.02293312      -0.00838873       0.00270260
Si       9.64214600      10.93574521      12.77905632       1.58438592      -0.29392199      -1.28616725       0.55169325       0.00368149      -0.00059931       0.00088738      -0.00171436      -0.00019832       0.00010809      -0.00050277      -0.00004747       0.00063435       0.44695826       0.02838613       0.01215793      -0.08597343      -0.00915456      -0.05384727       0.00477352      -0.02515186       0.11350493       0.44327677       0.02898544       0.01127055      -0.08425907      -0.00895624      -0.05395536       0.00527629      -0.02510439       0.11287058       0.00368149
O        6.15816747       5.63189170      11.50916216       0.06897044       2.71423074      -2.11169195      -0.28892945       0.03721060       0.00080189      -0.00339930       0.00007843       0.00307892       0.00711337       0.00386888       0.00980595       0.00322545      -0.21381346      -0.02126248      -0.01936734       0.03559751       0.01692938       0.04778767      -0.00572596       0.03772169       0.02318379      -0.25102406      -0.02206437      -0.01596804       0.03551908       0.01385046       0.04067430      -0.00959484       0.02791574       0.01995834       0.03721060
O        4.50634706       7.46608010      10.38982008       1.06721845       1.19552742       0.24336369      -0.27868424       0.00619781      -0.00005914      -0.00223308      -0.00305799       0.00071117      -0.00038218       0.00066973       0.00027336      -0.00008719      -0.22389453      -0.01777958      -0.00829154      -0.01929113       0.05838911      -0.01467998       0.00492259      -0.00256304      -0.01419082      -0.23009234      -0.01772044      -0.00605846      -0.01623314       0.05767794      -0.01429780       0.00425286      -0.00283640      -0.01410363       0.00619781
O        8.74553537       9.73709797      12.23143001      -1.40852135       0.33615735      -0.35386076      -0.27600118       0.00916441      -0.00015391       0.00222086       0.00063082      -0.00204379      -0.00166174       0.00023191      -0.00011950      -0.00039214      -0.20818277      -0.01993589       0.02184167       0.00165365      -0.09487371      -0.04624460      -0.00827432      -0.04765184      -0.01109411      -0.21734718      -0.01978198       0.01962081       0.00102283      -0.09282992      -0.04458286      -0.00850623      -0.04753234      -0.01070197       0.00916441
O        5.69436672      10.38564182      14.15322874       2.05531382      -0.70245595       0.99113421      -0.26641678       0.00191234      -0.00029714       0.00034882       0.00091996       0.00006513       0.00029739      -0.00002494      -0.00044864       0.00047832      -0.18846421       0.01443937       0.01435674       0.01436999       0.05842149       0.08203752      -0.03889639      -0.06316333       0.03958340      -0.19037655       0.01473651       0.01400792       0.01345003       0.05835636       0.08174013      -0.03887145      -0.06271469       0.03910508       0.00191234
O        4.82054220       8.35703157      15.42524322      -1.51708365      -1.03165436       1.46135353      -0.26337627       0.00411409       0.00123553       0.00191105       0.00063529      -0.00050650       0.00012551       0.00031780      -0.00001841      -0.00028617      -0.19172361       0.00873173       0.02218313      -0.01596125      -0.09857241      -0.01865138       0.02428106      -0.01967665      -0.03211347      -0.19583770       0.00749620       0.02027208      -0.01659654      -0.09806591      -0.01877689       0.02396326      -0.01965824      -0.03182730       0.00411409
O        9.00026777       6.48081191      13.66517860      -1.24010369       1.35697948       1.15724257      -0.26247271       0.00212948       0.00225376      -0.00088213      -0.00015843       0.00026103      -0.00016292      -0.00042119      -0.00011150      -0.00002543      -0.18856692       0.02127626      -0.00342646      -0.00516027       0.08184730      -0.09813604      -0.01699882       0.05495190       0.00926195      -0.19069640       0.01902250      -0.00254433      -0.00500184       0.08158627      -0.09797312      -0.01657763       0.05506340       0.00928738       0.00212948
